C11714
1.0
 109.1281632700000017    0.0000000000000000    0.0000000000000000
  54.5640816350000009   94.5077616601558930    0.0000000000000000
   0.0000000000000000    0.0000000000000000   26.6999999999999993
C
11714
direct
   0.0134973500000001    0.9607039099999999    0.3745318352059925 C
   0.0263112900000001    0.9740304100000000    0.3745318352059925 C
   0.0391252300000000    0.9873569099999999    0.3745318352059925 C
   0.0140099100000000    0.9212369700000000    0.3745318352059925 C
   0.0268238500000000    0.9345634699999998    0.3745318352059925 C
   0.0396377900000001    0.9478899700000000    0.3745318352059925 C
   0.0524517300000000    0.9612164699999999    0.3745318352059925 C
   0.0652656800000000    0.9745429700000000    0.3745318352059925 C
   0.0780796200000000    0.9878694699999999    0.3745318352059925 C
   0.0145224700000001    0.8817700300000001    0.3745318352059925 C
   0.0273364100000000    0.8950965300000000    0.3745318352059925 C
   0.0401503500000000    0.9084230300000001    0.3745318352059925 C
   0.0529642900000000    0.9217495300000000    0.3745318352059925 C
   0.0657782299999999    0.9350760299999998    0.3745318352059925 C
   0.0785921699999999    0.9484025300000000    0.3745318352059925 C
   0.0914061200000000    0.9617290299999999    0.3745318352059925 C
   0.1042200600000000    0.9750555300000000    0.3745318352059925 C
   0.1170340000000000    0.9883820299999999    0.3745318352059925 C
   0.0150350200000000    0.8423030900000000    0.3745318352059925 C
   0.0278489700000000    0.8556295900000001    0.3745318352059925 C
   0.0406629100000000    0.8689560900000000    0.3745318352059925 C
   0.0534768499999999    0.8822825900000001    0.3745318352059925 C
   0.0662907900000000    0.8956090900000000    0.3745318352059925 C
   0.0791047300000000    0.9089355900000001    0.3745318352059925 C
   0.0919186700000000    0.9222620900000000    0.3745318352059925 C
   0.1047326200000000    0.9355885900000002    0.3745318352059925 C
   0.1175465600000000    0.9489150900000000    0.3745318352059925 C
   0.1303605000000000    0.9622415899999999    0.3745318352059925 C
   0.1431744399999999    0.9755680799999999    0.3745318352059925 C
   0.1559883800000000    0.9888945800000001    0.3745318352059925 C
   0.0155475800000001    0.8028361500000000    0.3745318352059925 C
   0.0283615199999999    0.8161626500000000    0.3745318352059925 C
   0.0411754700000001    0.8294891500000000    0.3745318352059925 C
   0.0539894100000000    0.8428156500000000    0.3745318352059925 C
   0.0668033500000000    0.8561421500000000    0.3745318352059925 C
   0.0796172900000000    0.8694686500000000    0.3745318352059925 C
   0.0924312299999999    0.8827951500000001    0.3745318352059925 C
   0.1052451700000000    0.8961216500000000    0.3745318352059925 C
   0.1180591099999999    0.9094481500000001    0.3745318352059925 C
   0.1308730600000001    0.9227746500000000    0.3745318352059925 C
   0.1436870000000001    0.9361011400000000    0.3745318352059925 C
   0.1565009399999998    0.9494276400000000    0.3745318352059925 C
   0.1693148799999999    0.9627541400000001    0.3745318352059925 C
   0.1821288199999998    0.9760806400000001    0.3745318352059925 C
   0.1949427600000000    0.9894071400000001    0.3745318352059925 C
   0.0160601399999999    0.7633692100000001    0.3745318352059925 C
   0.0288740800000001    0.7766957100000000    0.3745318352059925 C
   0.0416880200000001    0.7900222099999999    0.3745318352059925 C
   0.0545019600000000    0.8033487100000000    0.3745318352059925 C
   0.0673159100000000    0.8166752100000000    0.3745318352059925 C
   0.0801298500000000    0.8300017100000000    0.3745318352059925 C
   0.0929437900000000    0.8433282100000000    0.3745318352059925 C
   0.1057577300000001    0.8566547100000000    0.3745318352059925 C
   0.1185716699999999    0.8699812099999999    0.3745318352059925 C
   0.1313856100000001    0.8833077099999999    0.3745318352059925 C
   0.1441995600000000    0.8966341999999999    0.3745318352059925 C
   0.1570135000000000    0.9099607000000000    0.3745318352059925 C
   0.1698274400000000    0.9232872000000000    0.3745318352059925 C
   0.1826413799999999    0.9366137000000001    0.3745318352059925 C
   0.1954553199999999    0.9499402000000000    0.3745318352059925 C
   0.2082692600000000    0.9632667000000001    0.3745318352059925 C
   0.2210832100000000    0.9765932000000001    0.3745318352059925 C
   0.2338971499999999    0.9899197000000000    0.3745318352059925 C
   0.0165727000000000    0.7239022700000000    0.3745318352059925 C
   0.0293866399999999    0.7372287700000001    0.3745318352059925 C
   0.0422005800000000    0.7505552700000000    0.3745318352059925 C
   0.0550145199999999    0.7638817700000001    0.3745318352059925 C
   0.0678284599999999    0.7772082700000000    0.3745318352059925 C
   0.0806424100000000    0.7905347700000002    0.3745318352059925 C
   0.0934563500000000    0.8038612700000000    0.3745318352059925 C
   0.1062702900000000    0.8171877700000000    0.3745318352059925 C
   0.1190842300000000    0.8305142700000000    0.3745318352059925 C
   0.1318981700000001    0.8438407700000000    0.3745318352059925 C
   0.1447121100000001    0.8571672599999999    0.3745318352059925 C
   0.1575260599999999    0.8704937599999999    0.3745318352059925 C
   0.1703399999999999    0.8838202600000000    0.3745318352059925 C
   0.1831539400000000    0.8971467599999999    0.3745318352059925 C
   0.1959678799999999    0.9104732600000001    0.3745318352059925 C
   0.2087818200000000    0.9237997600000000    0.3745318352059925 C
   0.2215957600000000    0.9371262600000001    0.3745318352059925 C
   0.2344096999999999    0.9504527600000000    0.3745318352059925 C
   0.2472236499999999    0.9637792600000001    0.3745318352059925 C
   0.2600375900000000    0.9771057600000000    0.3745318352059925 C
   0.2728515300000001    0.9904322600000000    0.3745318352059925 C
   0.0170852599999999    0.6844353300000000    0.3745318352059925 C
   0.0298992000000001    0.6977618299999999    0.3745318352059925 C
   0.0427131400000000    0.7110883300000000    0.3745318352059925 C
   0.0555270800000000    0.7244148300000000    0.3745318352059925 C
   0.0683410200000000    0.7377413300000001    0.3745318352059925 C
   0.0811549600000000    0.7510678300000000    0.3745318352059925 C
   0.0939688999999999    0.7643943300000001    0.3745318352059925 C
   0.1067828500000000    0.7777208300000000    0.3745318352059925 C
   0.1195967900000000    0.7910473300000002    0.3745318352059925 C
   0.1324107299999999    0.8043738300000001    0.3745318352059925 C
   0.1452246700000000    0.8177003200000000    0.3745318352059925 C
   0.1580386100000001    0.8310268200000001    0.3745318352059925 C
   0.1708525500000000    0.8443533199999999    0.3745318352059925 C
   0.1836665000000000    0.8576798200000000    0.3745318352059925 C
   0.1964804400000001    0.8710063199999999    0.3745318352059925 C
   0.2092943799999999    0.8843328200000000    0.3745318352059925 C
   0.2221083200000001    0.8976593199999999    0.3745318352059925 C
   0.2349222599999999    0.9109858200000001    0.3745318352059925 C
   0.2477362000000000    0.9243123200000000    0.3745318352059925 C
   0.2605501499999999    0.9376388200000001    0.3745318352059925 C
   0.2733640900000001    0.9509653200000000    0.3745318352059925 C
   0.2861780299999999    0.9642918200000001    0.3745318352059925 C
   0.2989919700000001    0.9776183200000000    0.3745318352059925 C
   0.3118059100000000    0.9909448100000000    0.3745318352059925 C
   0.0175978100000000    0.6449683899999999    0.3745318352059925 C
   0.0304117500000000    0.6582948900000001    0.3745318352059925 C
   0.0432256999999999    0.6716213900000000    0.3745318352059925 C
   0.0560396400000001    0.6849478900000000    0.3745318352059925 C
   0.0688535800000001    0.6982743899999999    0.3745318352059925 C
   0.0816675200000000    0.7116008900000000    0.3745318352059925 C
   0.0944814600000000    0.7249273899999999    0.3745318352059925 C
   0.1072953999999999    0.7382538900000001    0.3745318352059925 C
   0.1201093499999999    0.7515803900000000    0.3745318352059925 C
   0.1329232900000000    0.7649068900000001    0.3745318352059925 C
   0.1457372300000000    0.7782333800000000    0.3745318352059925 C
   0.1585511700000000    0.7915598800000000    0.3745318352059925 C
   0.1713651099999999    0.8048863800000000    0.3745318352059925 C
   0.1841790500000000    0.8182128800000000    0.3745318352059925 C
   0.1969929999999999    0.8315393800000001    0.3745318352059925 C
   0.2098069400000001    0.8448658799999998    0.3745318352059925 C
   0.2226208800000000    0.8581923800000000    0.3745318352059925 C
   0.2354348200000000    0.8715188799999999    0.3745318352059925 C
   0.2482487600000001    0.8848453800000000    0.3745318352059925 C
   0.2610627000000000    0.8981718799999999    0.3745318352059925 C
   0.2738766400000000    0.9114983800000001    0.3745318352059925 C
   0.2866905900000000    0.9248248800000000    0.3745318352059925 C
   0.2995045300000000    0.9381513800000001    0.3745318352059925 C
   0.3123184700000000    0.9514778699999999    0.3745318352059925 C
   0.3251324099999999    0.9648043700000000    0.3745318352059925 C
   0.3379463500000001    0.9781308700000000    0.3745318352059925 C
   0.3507602900000001    0.9914573700000000    0.3745318352059925 C
   0.0181103700000000    0.6055014500000000    0.3745318352059925 C
   0.0309243099999999    0.6188279500000000    0.3745318352059925 C
   0.0437382500000000    0.6321544500000000    0.3745318352059925 C
   0.0565521999999999    0.6454809500000001    0.3745318352059925 C
   0.0693661400000000    0.6588074500000000    0.3745318352059925 C
   0.0821800800000000    0.6721339500000000    0.3745318352059925 C
   0.0949940200000000    0.6854604500000000    0.3745318352059925 C
   0.1078079600000000    0.6987869499999999    0.3745318352059925 C
   0.1206219000000000    0.7121134500000000    0.3745318352059925 C
   0.1334358400000000    0.7254399499999999    0.3745318352059925 C
   0.1462497899999999    0.7387664400000000    0.3745318352059925 C
   0.1590637299999999    0.7520929400000002    0.3745318352059925 C
   0.1718776700000001    0.7654194400000000    0.3745318352059925 C
   0.1846916099999999    0.7787459400000000    0.3745318352059925 C
   0.1975055500000000    0.7920724400000000    0.3745318352059925 C
   0.2103194900000000    0.8053989400000000    0.3745318352059925 C
   0.2231334399999998    0.8187254400000001    0.3745318352059925 C
   0.2359473800000001    0.8320519400000000    0.3745318352059925 C
   0.2487613199999999    0.8453784399999998    0.3745318352059925 C
   0.2615752600000000    0.8587049400000000    0.3745318352059925 C
   0.2743892000000001    0.8720314399999999    0.3745318352059925 C
   0.2872031399999999    0.8853579400000000    0.3745318352059925 C
   0.3000170900000000    0.8986844399999999    0.3745318352059925 C
   0.3128310300000000    0.9120109300000000    0.3745318352059925 C
   0.3256449700000000    0.9253374300000001    0.3745318352059925 C
   0.3384589100000000    0.9386639300000000    0.3745318352059925 C
   0.3512728500000001    0.9519904300000002    0.3745318352059925 C
   0.3640867900000000    0.9653169300000000    0.3745318352059925 C
   0.3769007300000001    0.9786434300000000    0.3745318352059925 C
   0.3897146800000000    0.9919699300000001    0.3745318352059925 C
   0.0186229300000000    0.5660345100000000    0.3745318352059925 C
   0.0314368700000000    0.5793610100000000    0.3745318352059925 C
   0.0442508099999999    0.5926875100000000    0.3745318352059925 C
   0.0570647500000000    0.6060140100000000    0.3745318352059925 C
   0.0698786900000000    0.6193405100000000    0.3745318352059925 C
   0.0826926400000000    0.6326670100000000    0.3745318352059925 C
   0.0955065800000000    0.6459935100000000    0.3745318352059925 C
   0.1083205200000000    0.6593200100000000    0.3745318352059925 C
   0.1211344599999999    0.6726465100000000    0.3745318352059925 C
   0.1339484000000000    0.6859730100000000    0.3745318352059925 C
   0.1467623400000000    0.6992995000000001    0.3745318352059925 C
   0.1595762900000001    0.7126260000000000    0.3745318352059925 C
   0.1723902299999999    0.7259525000000001    0.3745318352059925 C
   0.1852041700000000    0.7392790000000000    0.3745318352059925 C
   0.1980181100000000    0.7526055000000001    0.3745318352059925 C
   0.2108320499999999    0.7659319999999999    0.3745318352059925 C
   0.2236459900000001    0.7792584999999999    0.3745318352059925 C
   0.2364599400000000    0.7925849999999999    0.3745318352059925 C
   0.2492738799999999    0.8059114999999999    0.3745318352059925 C
   0.2620878200000001    0.8192379999999999    0.3745318352059925 C
   0.2749017599999999    0.8325644999999999    0.3745318352059925 C
   0.2877157000000001    0.8458909999999998    0.3745318352059925 C
   0.3005296399999998    0.8592175000000000    0.3745318352059925 C
   0.3133435799999998    0.8725439900000000    0.3745318352059925 C
   0.3261575300000000    0.8858704900000000    0.3745318352059925 C
   0.3389714699999999    0.8991969900000001    0.3745318352059925 C
   0.3517854100000000    0.9125234900000000    0.3745318352059925 C
   0.3645993499999999    0.9258499900000001    0.3745318352059925 C
   0.3774132900000000    0.9391764900000000    0.3745318352059925 C
   0.3902272299999998    0.9525029900000002    0.3745318352059925 C
   0.4030411799999999    0.9658294900000001    0.3745318352059925 C
   0.4158551200000000    0.9791559900000000    0.3745318352059925 C
   0.4286690599999999    0.9924824900000001    0.3745318352059925 C
   0.0191354900000000    0.5265675700000000    0.3745318352059925 C
   0.0319494300000000    0.5398940700000000    0.3745318352059925 C
   0.0447633700000000    0.5532205700000000    0.3745318352059925 C
   0.0575773100000000    0.5665470700000000    0.3745318352059925 C
   0.0703912500000000    0.5798735699999999    0.3745318352059925 C
   0.0832051900000000    0.5932000700000000    0.3745318352059925 C
   0.0960191400000001    0.6065265700000000    0.3745318352059925 C
   0.1088330800000000    0.6198530700000000    0.3745318352059925 C
   0.1216470200000000    0.6331795700000000    0.3745318352059925 C
   0.1344609600000000    0.6465060700000000    0.3745318352059925 C
   0.1472749000000000    0.6598325599999999    0.3745318352059925 C
   0.1600888400000000    0.6731590599999999    0.3745318352059925 C
   0.1729027800000000    0.6864855600000001    0.3745318352059925 C
   0.1857167300000000    0.6998120600000001    0.3745318352059925 C
   0.1985306699999999    0.7131385600000000    0.3745318352059925 C
   0.2113446099999999    0.7264650600000001    0.3745318352059925 C
   0.2241585500000001    0.7397915600000000    0.3745318352059925 C
   0.2369724900000001    0.7531180600000001    0.3745318352059925 C
   0.2497864300000000    0.7664445600000001    0.3745318352059925 C
   0.2626003800000001    0.7797710599999998    0.3745318352059925 C
   0.2754143200000000    0.7930975599999999    0.3745318352059925 C
   0.2882282600000000    0.8064240599999999    0.3745318352059925 C
   0.3010421999999999    0.8197505599999999    0.3745318352059925 C
   0.3138561399999998    0.8330770500000000    0.3745318352059925 C
   0.3266700800000000    0.8464035500000000    0.3745318352059925 C
   0.3394840299999999    0.8597300500000000    0.3745318352059925 C
   0.3522979700000000    0.8730565500000000    0.3745318352059925 C
   0.3651119100000000    0.8863830500000000    0.3745318352059925 C
   0.3779258499999999    0.8997095500000001    0.3745318352059925 C
   0.3907397900000000    0.9130360500000000    0.3745318352059925 C
   0.4035537299999998    0.9263625500000001    0.3745318352059925 C
   0.4163676699999999    0.9396890500000000    0.3745318352059925 C
   0.4291816199999999    0.9530155500000000    0.3745318352059925 C
   0.4419955599999998    0.9663420500000001    0.3745318352059925 C
   0.4548095000000000    0.9796685500000000    0.3745318352059925 C
   0.4676234399999998    0.9929950500000001    0.3745318352059925 C
   0.0196480400000000    0.4871006300000000    0.3745318352059925 C
   0.0324619900000000    0.5004271300000001    0.3745318352059925 C
   0.0452759300000001    0.5137536300000000    0.3745318352059925 C
   0.0580898700000001    0.5270801300000000    0.3745318352059925 C
   0.0709038100000000    0.5404066300000000    0.3745318352059925 C
   0.0837177500000000    0.5537331300000000    0.3745318352059925 C
   0.0965316900000000    0.5670596300000000    0.3745318352059925 C
   0.1093456300000000    0.5803861299999999    0.3745318352059925 C
   0.1221595800000000    0.5937126300000000    0.3745318352059925 C
   0.1349735200000000    0.6070391300000000    0.3745318352059925 C
   0.1477874600000001    0.6203656200000000    0.3745318352059925 C
   0.1606014000000001    0.6336921199999999    0.3745318352059925 C
   0.1734153400000000    0.6470186199999999    0.3745318352059925 C
   0.1862292800000001    0.6603451199999999    0.3745318352059925 C
   0.1990432300000000    0.6736716199999999    0.3745318352059925 C
   0.2118571700000000    0.6869981200000000    0.3745318352059925 C
   0.2246711099999999    0.7003246200000001    0.3745318352059925 C
   0.2374850500000000    0.7136511200000000    0.3745318352059925 C
   0.2502989899999999    0.7269776200000000    0.3745318352059925 C
   0.2631129300000000    0.7403041200000000    0.3745318352059925 C
   0.2759268800000000    0.7536306200000000    0.3745318352059925 C
   0.2887408200000000    0.7669571200000000    0.3745318352059925 C
   0.3015547599999999    0.7802836199999998    0.3745318352059925 C
   0.3143686999999998    0.7936101099999999    0.3745318352059925 C
   0.3271826400000000    0.8069366099999999    0.3745318352059925 C
   0.3399965800000000    0.8202631100000000    0.3745318352059925 C
   0.3528105199999999    0.8335896100000000    0.3745318352059925 C
   0.3656244699999999    0.8469161100000000    0.3745318352059925 C
   0.3784384100000001    0.8602426100000000    0.3745318352059925 C
   0.3912523500000000    0.8735691100000000    0.3745318352059925 C
   0.4040662899999999    0.8868956099999999    0.3745318352059925 C
   0.4168802300000000    0.9002221100000001    0.3745318352059925 C
   0.4296941699999999    0.9135486100000000    0.3745318352059925 C
   0.4425081199999999    0.9268751100000000    0.3745318352059925 C
   0.4553220599999998    0.9402016100000000    0.3745318352059925 C
   0.4681359999999998    0.9535281100000000    0.3745318352059925 C
   0.4809499400000000    0.9668545999999999    0.3745318352059925 C
   0.4937638800000001    0.9801810999999999    0.3745318352059925 C
   0.5065778200000003    0.9935075999999999    0.3745318352059925 C
   0.0201606000000000    0.4476336900000000    0.3745318352059925 C
   0.0329745400000000    0.4609601900000000    0.3745318352059925 C
   0.0457884800000000    0.4742866900000000    0.3745318352059925 C
   0.0586024300000000    0.4876131900000000    0.3745318352059925 C
   0.0714163700000000    0.5009396900000000    0.3745318352059925 C
   0.0842303100000000    0.5142661900000000    0.3745318352059925 C
   0.0970442500000000    0.5275926900000000    0.3745318352059925 C
   0.1098581900000000    0.5409191900000000    0.3745318352059925 C
   0.1226721299999999    0.5542456900000000    0.3745318352059925 C
   0.1354860800000000    0.5675721900000000    0.3745318352059925 C
   0.1483000200000000    0.5808986800000000    0.3745318352059925 C
   0.1611139599999999    0.5942251800000000    0.3745318352059925 C
   0.1739279000000001    0.6075516800000000    0.3745318352059925 C
   0.1867418400000000    0.6208781799999999    0.3745318352059925 C
   0.1995557800000000    0.6342046800000000    0.3745318352059925 C
   0.2123697199999999    0.6475311800000000    0.3745318352059925 C
   0.2251836700000000    0.6608576800000000    0.3745318352059925 C
   0.2379976099999999    0.6741841800000000    0.3745318352059925 C
   0.2508115499999999    0.6875106800000000    0.3745318352059925 C
   0.2636254900000000    0.7008371799999999    0.3745318352059925 C
   0.2764394299999998    0.7141636800000000    0.3745318352059925 C
   0.2892533700000001    0.7274901800000000    0.3745318352059925 C
   0.3020673200000000    0.7408166800000000    0.3745318352059925 C
   0.3148812599999999    0.7541431699999999    0.3745318352059925 C
   0.3276952000000001    0.7674696699999999    0.3745318352059925 C
   0.3405091400000001    0.7807961699999999    0.3745318352059925 C
   0.3533230799999999    0.7941226699999999    0.3745318352059925 C
   0.3661370200000001    0.8074491699999999    0.3745318352059925 C
   0.3789509700000000    0.8207756700000000    0.3745318352059925 C
   0.3917649100000000    0.8341021700000000    0.3745318352059925 C
   0.4045788500000000    0.8474286700000001    0.3745318352059925 C
   0.4173927899999998    0.8607551700000000    0.3745318352059925 C
   0.4302067299999999    0.8740816700000001    0.3745318352059925 C
   0.4430206700000000    0.8874081700000001    0.3745318352059925 C
   0.4558346100000000    0.9007346700000000    0.3745318352059925 C
   0.4686485599999998    0.9140611700000000    0.3745318352059925 C
   0.4814625000000000    0.9273876599999999    0.3745318352059925 C
   0.4942764400000000    0.9407141599999999    0.3745318352059925 C
   0.5070903799999998    0.9540406599999999    0.3745318352059925 C
   0.5199043200000002    0.9673671599999999    0.3745318352059925 C
   0.5327182600000000    0.9806936599999999    0.3745318352059925 C
   0.5455322100000002    0.9940201599999999    0.3745318352059925 C
   0.0206731600000000    0.4081667500000000    0.3745318352059925 C
   0.0334871000000000    0.4214932500000000    0.3745318352059925 C
   0.0463010400000000    0.4348197499999999    0.3745318352059925 C
   0.0591149800000000    0.4481462500000000    0.3745318352059925 C
   0.0719289300000000    0.4614727500000000    0.3745318352059925 C
   0.0847428700000000    0.4747992500000000    0.3745318352059925 C
   0.0975568100000000    0.4881257500000000    0.3745318352059925 C
   0.1103707500000000    0.5014522500000000    0.3745318352059925 C
   0.1231846900000000    0.5147787500000000    0.3745318352059925 C
   0.1359986299999999    0.5281052500000000    0.3745318352059925 C
   0.1488125699999999    0.5414317400000001    0.3745318352059925 C
   0.1616265200000001    0.5547582400000000    0.3745318352059925 C
   0.1744404600000000    0.5680847400000000    0.3745318352059925 C
   0.1872544000000000    0.5814112400000000    0.3745318352059925 C
   0.2000683400000001    0.5947377400000000    0.3745318352059925 C
   0.2128822800000000    0.6080642400000000    0.3745318352059925 C
   0.2256962199999999    0.6213907400000001    0.3745318352059925 C
   0.2385101700000000    0.6347172400000000    0.3745318352059925 C
   0.2513241099999999    0.6480437400000000    0.3745318352059925 C
   0.2641380500000000    0.6613702400000000    0.3745318352059925 C
   0.2769519900000000    0.6746967400000000    0.3745318352059925 C
   0.2897659299999999    0.6880232400000000    0.3745318352059925 C
   0.3025798699999999    0.7013497400000002    0.3745318352059925 C
   0.3153938199999998    0.7146762300000001    0.3745318352059925 C
   0.3282077600000000    0.7280027300000000    0.3745318352059925 C
   0.3410217000000001    0.7413292299999998    0.3745318352059925 C
   0.3538356400000001    0.7546557299999999    0.3745318352059925 C
   0.3666495800000001    0.7679822299999999    0.3745318352059925 C
   0.3794635200000001    0.7813087299999999    0.3745318352059925 C
   0.3922774600000001    0.7946352299999999    0.3745318352059925 C
   0.4050914100000000    0.8079617299999999    0.3745318352059925 C
   0.4179053499999999    0.8212882300000001    0.3745318352059925 C
   0.4307192900000000    0.8346147300000000    0.3745318352059925 C
   0.4435332299999997    0.8479412300000001    0.3745318352059925 C
   0.4563471699999999    0.8612677300000000    0.3745318352059925 C
   0.4691611099999999    0.8745942300000001    0.3745318352059925 C
   0.4819750600000000    0.8879207200000001    0.3745318352059925 C
   0.4947890000000000    0.9012472200000000    0.3745318352059925 C
   0.5076029399999997    0.9145737200000000    0.3745318352059925 C
   0.5204168800000000    0.9279002200000001    0.3745318352059925 C
   0.5332308200000001    0.9412267199999999    0.3745318352059925 C
   0.5460447599999999    0.9545532199999999    0.3745318352059925 C
   0.5588586999999999    0.9678797199999999    0.3745318352059925 C
   0.5716726499999999    0.9812062199999999    0.3745318352059925 C
   0.5844865900000000    0.9945327200000000    0.3745318352059925 C
   0.0211857200000000    0.3686998100000000    0.3745318352059925 C
   0.0339996600000000    0.3820263100000000    0.3745318352059925 C
   0.0468136000000000    0.3953528100000000    0.3745318352059925 C
   0.0596275400000000    0.4086793100000000    0.3745318352059925 C
   0.0724414800000000    0.4220058100000000    0.3745318352059925 C
   0.0852554199999999    0.4353323100000001    0.3745318352059925 C
   0.0980693700000000    0.4486588100000000    0.3745318352059925 C
   0.1108833100000000    0.4619853100000000    0.3745318352059925 C
   0.1236972499999999    0.4753118100000000    0.3745318352059925 C
   0.1365111900000000    0.4886383100000000    0.3745318352059925 C
   0.1493251299999999    0.5019648000000000    0.3745318352059925 C
   0.1621390700000000    0.5152913000000000    0.3745318352059925 C
   0.1749530200000000    0.5286178000000000    0.3745318352059925 C
   0.1877669600000000    0.5419443000000000    0.3745318352059925 C
   0.2005809000000000    0.5552708000000000    0.3745318352059925 C
   0.2133948400000000    0.5685973000000000    0.3745318352059925 C
   0.2262087800000000    0.5819238000000000    0.3745318352059925 C
   0.2390227200000000    0.5952503000000000    0.3745318352059925 C
   0.2518366599999999    0.6085768000000000    0.3745318352059925 C
   0.2646506099999999    0.6219033000000000    0.3745318352059925 C
   0.2774645500000000    0.6352298000000000    0.3745318352059925 C
   0.2902784900000000    0.6485563000000000    0.3745318352059925 C
   0.3030924299999999    0.6618828000000000    0.3745318352059925 C
   0.3159063700000002    0.6752092899999999    0.3745318352059925 C
   0.3287203100000001    0.6885357899999999    0.3745318352059925 C
   0.3415342600000000    0.7018622900000000    0.3745318352059925 C
   0.3543482000000001    0.7151887899999999    0.3745318352059925 C
   0.3671621399999999    0.7285152900000000    0.3745318352059925 C
   0.3799760800000000    0.7418417899999998    0.3745318352059925 C
   0.3927900200000000    0.7551682899999999    0.3745318352059925 C
   0.4056039600000001    0.7684947899999999    0.3745318352059925 C
   0.4184179100000001    0.7818212899999999    0.3745318352059925 C
   0.4312318500000000    0.7951477900000000    0.3745318352059925 C
   0.4440457900000000    0.8084742899999999    0.3745318352059925 C
   0.4568597299999999    0.8218007900000001    0.3745318352059925 C
   0.4696736699999999    0.8351272900000000    0.3745318352059925 C
   0.4824876100000000    0.8484537800000000    0.3745318352059925 C
   0.4953015499999999    0.8617802800000001    0.3745318352059925 C
   0.5081155000000002    0.8751067800000000    0.3745318352059925 C
   0.5209294399999999    0.8884332800000000    0.3745318352059925 C
   0.5337433800000001    0.9017597800000000    0.3745318352059925 C
   0.5465573199999998    0.9150862800000000    0.3745318352059925 C
   0.5593712599999998    0.9284127800000000    0.3745318352059925 C
   0.5721852000000003    0.9417392799999998    0.3745318352059925 C
   0.5849991500000000    0.9550657799999999    0.3745318352059925 C
   0.5978130900000002    0.9683922800000000    0.3745318352059925 C
   0.6106270300000001    0.9817187799999999    0.3745318352059925 C
   0.6234409700000000    0.9950452800000000    0.3745318352059925 C
   0.0216982700000000    0.3292328700000000    0.3745318352059925 C
   0.0345122200000000    0.3425593700000000    0.3745318352059925 C
   0.0473261600000000    0.3558858700000000    0.3745318352059925 C
   0.0601401000000000    0.3692123700000000    0.3745318352059925 C
   0.0729540400000000    0.3825388700000000    0.3745318352059925 C
   0.0857679800000000    0.3958653700000000    0.3745318352059925 C
   0.0985819200000000    0.4091918700000000    0.3745318352059925 C
   0.1113958700000000    0.4225183700000000    0.3745318352059925 C
   0.1242098099999999    0.4358448700000000    0.3745318352059925 C
   0.1370237500000000    0.4491713700000000    0.3745318352059925 C
   0.1498376900000000    0.4624978600000000    0.3745318352059925 C
   0.1626516300000000    0.4758243600000000    0.3745318352059925 C
   0.1754655700000000    0.4891508600000000    0.3745318352059925 C
   0.1882795100000000    0.5024773600000000    0.3745318352059925 C
   0.2010934600000000    0.5158038600000000    0.3745318352059925 C
   0.2139073999999999    0.5291303600000000    0.3745318352059925 C
   0.2267213399999999    0.5424568600000000    0.3745318352059925 C
   0.2395352799999999    0.5557833599999999    0.3745318352059925 C
   0.2523492200000000    0.5691098600000000    0.3745318352059925 C
   0.2651631600000000    0.5824363600000001    0.3745318352059925 C
   0.2779771100000000    0.5957628600000000    0.3745318352059925 C
   0.2907910499999998    0.6090893600000000    0.3745318352059925 C
   0.3036049900000000    0.6224158600000000    0.3745318352059925 C
   0.3164189299999999    0.6357423500000000    0.3745318352059925 C
   0.3292328700000000    0.6490688500000000    0.3745318352059925 C
   0.3420468099999999    0.6623953500000000    0.3745318352059925 C
   0.3548607600000002    0.6757218499999998    0.3745318352059925 C
   0.3676747000000001    0.6890483499999999    0.3745318352059925 C
   0.3804886400000000    0.7023748500000000    0.3745318352059925 C
   0.3933025799999999    0.7157013499999999    0.3745318352059925 C
   0.4061165200000000    0.7290278500000000    0.3745318352059925 C
   0.4189304599999999    0.7423543499999999    0.3745318352059925 C
   0.4317444000000000    0.7556808499999998    0.3745318352059925 C
   0.4445583499999999    0.7690073500000000    0.3745318352059925 C
   0.4573722900000001    0.7823338499999999    0.3745318352059925 C
   0.4701862300000000    0.7956603500000000    0.3745318352059925 C
   0.4830001699999998    0.8089868400000001    0.3745318352059925 C
   0.4958141100000000    0.8223133400000000    0.3745318352059925 C
   0.5086280499999999    0.8356398400000001    0.3745318352059925 C
   0.5214420000000001    0.8489663400000000    0.3745318352059925 C
   0.5342559399999998    0.8622928399999999    0.3745318352059925 C
   0.5470698800000001    0.8756193400000000    0.3745318352059925 C
   0.5598838199999999    0.8889458400000000    0.3745318352059925 C
   0.5726977600000002    0.9022723400000000    0.3745318352059925 C
   0.5855116999999997    0.9155988400000000    0.3745318352059925 C
   0.5983256399999999    0.9289253400000002    0.3745318352059925 C
   0.6111395900000001    0.9422518400000000    0.3745318352059925 C
   0.6239535300000000    0.9555783399999999    0.3745318352059925 C
   0.6367674699999999    0.9689048400000000    0.3745318352059925 C
   0.6495814099999998    0.9822313300000001    0.3745318352059925 C
   0.6623953499999999    0.9955578300000000    0.3745318352059925 C
   0.0222108300000000    0.2897659300000000    0.3745318352059925 C
   0.0350247700000000    0.3030924300000000    0.3745318352059925 C
   0.0478387200000000    0.3164189300000000    0.3745318352059925 C
   0.0606526600000000    0.3297454300000000    0.3745318352059925 C
   0.0734666000000000    0.3430719300000000    0.3745318352059925 C
   0.0862805400000000    0.3563984300000000    0.3745318352059925 C
   0.0990944800000000    0.3697249300000000    0.3745318352059925 C
   0.1119084200000000    0.3830514300000000    0.3745318352059925 C
   0.1247223600000000    0.3963779299999999    0.3745318352059925 C
   0.1375363100000000    0.4097044300000000    0.3745318352059925 C
   0.1503502500000000    0.4230309199999999    0.3745318352059925 C
   0.1631641900000001    0.4363574199999999    0.3745318352059925 C
   0.1759781300000000    0.4496839200000000    0.3745318352059925 C
   0.1887920700000000    0.4630104200000000    0.3745318352059925 C
   0.2016060100000000    0.4763369200000000    0.3745318352059925 C
   0.2144199599999999    0.4896634200000000    0.3745318352059925 C
   0.2272338999999999    0.5029899200000000    0.3745318352059925 C
   0.2400478400000000    0.5163164200000000    0.3745318352059925 C
   0.2528617800000000    0.5296429200000000    0.3745318352059925 C
   0.2656757200000000    0.5429694200000000    0.3745318352059925 C
   0.2784896600000000    0.5562959200000001    0.3745318352059925 C
   0.2913036000000001    0.5696224200000000    0.3745318352059925 C
   0.3041175500000000    0.5829489200000000    0.3745318352059925 C
   0.3169314900000000    0.5962754100000000    0.3745318352059925 C
   0.3297454300000000    0.6096019100000000    0.3745318352059925 C
   0.3425593700000000    0.6229284100000000    0.3745318352059925 C
   0.3553733100000000    0.6362549100000000    0.3745318352059925 C
   0.3681872500000001    0.6495814100000000    0.3745318352059925 C
   0.3810012000000001    0.6629079100000000    0.3745318352059925 C
   0.3938151400000001    0.6762344100000000    0.3745318352059925 C
   0.4066290800000001    0.6895609099999999    0.3745318352059925 C
   0.4194430199999998    0.7028874100000000    0.3745318352059925 C
   0.4322569600000001    0.7162139099999999    0.3745318352059925 C
   0.4450708999999997    0.7295404100000000    0.3745318352059925 C
   0.4578848500000000    0.7428669099999999    0.3745318352059925 C
   0.4706987900000000    0.7561934099999998    0.3745318352059925 C
   0.4835127299999998    0.7695199000000001    0.3745318352059925 C
   0.4963266700000000    0.7828464000000001    0.3745318352059925 C
   0.5091406099999998    0.7961729000000000    0.3745318352059925 C
   0.5219545500000000    0.8094994000000001    0.3745318352059925 C
   0.5347684900000000    0.8228259000000000    0.3745318352059925 C
   0.5475824400000000    0.8361524000000001    0.3745318352059925 C
   0.5603963799999999    0.8494789000000000    0.3745318352059925 C
   0.5732103199999998    0.8628053999999999    0.3745318352059925 C
   0.5860242600000001    0.8761319000000000    0.3745318352059925 C
   0.5988382000000001    0.8894584000000000    0.3745318352059925 C
   0.6116521399999998    0.9027849000000001    0.3745318352059925 C
   0.6244660899999999    0.9161114000000000    0.3745318352059925 C
   0.6372800299999998    0.9294379000000002    0.3745318352059925 C
   0.6500939699999998    0.9427643900000001    0.3745318352059925 C
   0.6629079099999999    0.9560908900000000    0.3745318352059925 C
   0.6757218499999998    0.9694173900000002    0.3745318352059925 C
   0.6885357900000000    0.9827438900000001    0.3745318352059925 C
   0.7013497399999998    0.9960703900000000    0.3745318352059925 C
   0.0227233900000000    0.2502989900000000    0.3745318352059925 C
   0.0355373300000000    0.2636254900000000    0.3745318352059925 C
   0.0483512700000000    0.2769519900000000    0.3745318352059925 C
   0.0611652100000000    0.2902784900000000    0.3745318352059925 C
   0.0739791600000000    0.3036049900000000    0.3745318352059925 C
   0.0867931000000000    0.3169314900000000    0.3745318352059925 C
   0.0996070400000000    0.3302579900000000    0.3745318352059925 C
   0.1124209800000000    0.3435844900000000    0.3745318352059925 C
   0.1252349200000000    0.3569109900000000    0.3745318352059925 C
   0.1380488600000000    0.3702374900000000    0.3745318352059925 C
   0.1508628100000000    0.3835639800000000    0.3745318352059925 C
   0.1636767500000000    0.3968904800000000    0.3745318352059925 C
   0.1764906900000000    0.4102169800000001    0.3745318352059925 C
   0.1893046300000000    0.4235434800000000    0.3745318352059925 C
   0.2021185700000000    0.4368699799999999    0.3745318352059925 C
   0.2149325100000000    0.4501964800000000    0.3745318352059925 C
   0.2277464500000000    0.4635229800000000    0.3745318352059925 C
   0.2405604000000001    0.4768494800000000    0.3745318352059925 C
   0.2533743400000001    0.4901759800000000    0.3745318352059925 C
   0.2661882799999999    0.5035024800000000    0.3745318352059925 C
   0.2790022199999999    0.5168289800000000    0.3745318352059925 C
   0.2918161599999999    0.5301554800000000    0.3745318352059925 C
   0.3046301000000000    0.5434819800000000    0.3745318352059925 C
   0.3174440500000000    0.5568084700000000    0.3745318352059925 C
   0.3302579899999998    0.5701349700000000    0.3745318352059925 C
   0.3430719300000000    0.5834614700000000    0.3745318352059925 C
   0.3558858699999998    0.5967879699999999    0.3745318352059925 C
   0.3686998100000000    0.6101144700000000    0.3745318352059925 C
   0.3815137500000000    0.6234409700000000    0.3745318352059925 C
   0.3943277000000000    0.6367674700000000    0.3745318352059925 C
   0.4071416399999999    0.6500939700000000    0.3745318352059925 C
   0.4199555800000001    0.6634204700000000    0.3745318352059925 C
   0.4327695200000000    0.6767469699999999    0.3745318352059925 C
   0.4455834600000000    0.6900734699999999    0.3745318352059925 C
   0.4583974000000000    0.7033999699999999    0.3745318352059925 C
   0.4712113399999999    0.7167264699999999    0.3745318352059925 C
   0.4840252900000000    0.7300529600000000    0.3745318352059925 C
   0.4968392300000000    0.7433794600000001    0.3745318352059925 C
   0.5096531700000000    0.7567059600000000    0.3745318352059925 C
   0.5224671099999999    0.7700324600000000    0.3745318352059925 C
   0.5352810499999999    0.7833589600000000    0.3745318352059925 C
   0.5480949899999998    0.7966854600000000    0.3745318352059925 C
   0.5609089399999999    0.8100119600000001    0.3745318352059925 C
   0.5737228799999999    0.8233384600000000    0.3745318352059925 C
   0.5865368200000000    0.8366649600000001    0.3745318352059925 C
   0.5993507600000001    0.8499914600000000    0.3745318352059925 C
   0.6121647000000000    0.8633179600000002    0.3745318352059925 C
   0.6249786400000003    0.8766444600000000    0.3745318352059925 C
   0.6377925799999999    0.8899709599999999    0.3745318352059925 C
   0.6506065300000000    0.9032974499999999    0.3745318352059925 C
   0.6634204700000002    0.9166239500000001    0.3745318352059925 C
   0.6762344100000001    0.9299504500000000    0.3745318352059925 C
   0.6890483500000000    0.9432769500000001    0.3745318352059925 C
   0.7018622899999999    0.9566034500000000    0.3745318352059925 C
   0.7146762300000000    0.9699299500000000    0.3745318352059925 C
   0.7274901800000001    0.9832564500000001    0.3745318352059925 C
   0.7403041200000000    0.9965829500000000    0.3745318352059925 C
   0.0232359500000000    0.2108320500000000    0.3745318352059925 C
   0.0360498900000000    0.2241585500000000    0.3745318352059925 C
   0.0488638300000000    0.2374850500000000    0.3745318352059925 C
   0.0616777700000000    0.2508115500000000    0.3745318352059925 C
   0.0744917100000000    0.2641380500000000    0.3745318352059925 C
   0.0873056600000000    0.2774645500000000    0.3745318352059925 C
   0.1001196000000000    0.2907910500000000    0.3745318352059925 C
   0.1129335400000000    0.3041175500000000    0.3745318352059925 C
   0.1257474800000000    0.3174440500000000    0.3745318352059925 C
   0.1385614200000000    0.3307705500000000    0.3745318352059925 C
   0.1513753600000000    0.3440970400000000    0.3745318352059925 C
   0.1641893000000000    0.3574235400000000    0.3745318352059925 C
   0.1770032500000000    0.3707500400000000    0.3745318352059925 C
   0.1898171900000000    0.3840765400000001    0.3745318352059925 C
   0.2026311300000001    0.3974030400000000    0.3745318352059925 C
   0.2154450700000000    0.4107295400000000    0.3745318352059925 C
   0.2282590100000000    0.4240560400000000    0.3745318352059925 C
   0.2410729500000000    0.4373825400000000    0.3745318352059925 C
   0.2538869000000000    0.4507090400000000    0.3745318352059925 C
   0.2667008399999999    0.4640355400000000    0.3745318352059925 C
   0.2795147800000001    0.4773620399999999    0.3745318352059925 C
   0.2923287199999999    0.4906885400000000    0.3745318352059925 C
   0.3051426600000000    0.5040150400000000    0.3745318352059925 C
   0.3179565999999999    0.5173415300000000    0.3745318352059925 C
   0.3307705500000000    0.5306680300000000    0.3745318352059925 C
   0.3435844900000000    0.5439945300000000    0.3745318352059925 C
   0.3563984299999999    0.5573210300000000    0.3745318352059925 C
   0.3692123700000000    0.5706475300000000    0.3745318352059925 C
   0.3820263100000001    0.5839740300000000    0.3745318352059925 C
   0.3948402499999999    0.5973005300000001    0.3745318352059925 C
   0.4076541900000000    0.6106270300000000    0.3745318352059925 C
   0.4204681399999999    0.6239535300000000    0.3745318352059925 C
   0.4332820800000002    0.6372800300000000    0.3745318352059925 C
   0.4460960199999999    0.6506065300000000    0.3745318352059925 C
   0.4589099600000001    0.6639330300000001    0.3745318352059925 C
   0.4717238999999999    0.6772595300000001    0.3745318352059925 C
   0.4845378399999999    0.6905860200000000    0.3745318352059925 C
   0.4973517900000002    0.7039125199999999    0.3745318352059925 C
   0.5101657299999999    0.7172390200000001    0.3745318352059925 C
   0.5229796700000001    0.7305655200000000    0.3745318352059925 C
   0.5357936099999998    0.7438920200000000    0.3745318352059925 C
   0.5486075499999999    0.7572185200000000    0.3745318352059925 C
   0.5614214899999997    0.7705450200000000    0.3745318352059925 C
   0.5742354300000001    0.7838715200000000    0.3745318352059925 C
   0.5870493800000000    0.7971980200000000    0.3745318352059925 C
   0.5998633200000001    0.8105245200000001    0.3745318352059925 C
   0.6126772600000000    0.8238510200000000    0.3745318352059925 C
   0.6254911999999999    0.8371775200000001    0.3745318352059925 C
   0.6383051400000000    0.8505040200000000    0.3745318352059925 C
   0.6511190800000001    0.8638305100000000    0.3745318352059925 C
   0.6639330300000001    0.8771570099999999    0.3745318352059925 C
   0.6767469700000001    0.8904835100000000    0.3745318352059925 C
   0.6895609100000002    0.9038100099999999    0.3745318352059925 C
   0.7023748500000001    0.9171365100000001    0.3745318352059925 C
   0.7151887900000000    0.9304630100000000    0.3745318352059925 C
   0.7280027299999997    0.9437895100000000    0.3745318352059925 C
   0.7408166800000000    0.9571160100000000    0.3745318352059925 C
   0.7536306199999999    0.9704425100000000    0.3745318352059925 C
   0.7664445600000001    0.9837690100000001    0.3745318352059925 C
   0.7792584999999999    0.9970955100000000    0.3745318352059925 C
   0.0237485100000000    0.1713651100000000    0.3745318352059925 C
   0.0365624500000000    0.1846916100000000    0.3745318352059925 C
   0.0493763900000000    0.1980181100000000    0.3745318352059925 C
   0.0621903300000000    0.2113446100000000    0.3745318352059925 C
   0.0750042700000000    0.2246711100000000    0.3745318352059925 C
   0.0878182099999999    0.2379976100000000    0.3745318352059925 C
   0.1006321500000000    0.2513241100000000    0.3745318352059925 C
   0.1134461000000000    0.2646506100000000    0.3745318352059925 C
   0.1262600400000000    0.2779771100000000    0.3745318352059925 C
   0.1390739800000000    0.2913036000000000    0.3745318352059925 C
   0.1518879200000001    0.3046301000000000    0.3745318352059925 C
   0.1647018600000001    0.3179566000000000    0.3745318352059925 C
   0.1775158000000000    0.3312831000000000    0.3745318352059925 C
   0.1903297500000000    0.3446096000000000    0.3745318352059925 C
   0.2031436900000000    0.3579361000000000    0.3745318352059925 C
   0.2159576300000000    0.3712626000000001    0.3745318352059925 C
   0.2287715700000000    0.3845891000000001    0.3745318352059925 C
   0.2415855099999999    0.3979156000000000    0.3745318352059925 C
   0.2543994500000000    0.4112421000000000    0.3745318352059925 C
   0.2672133899999999    0.4245686000000000    0.3745318352059925 C
   0.2800273400000000    0.4378951000000000    0.3745318352059925 C
   0.2928412799999999    0.4512216000000000    0.3745318352059925 C
   0.3056552199999999    0.4645480900000001    0.3745318352059925 C
   0.3184691600000000    0.4778745900000000    0.3745318352059925 C
   0.3312831000000000    0.4912010900000000    0.3745318352059925 C
   0.3440970399999999    0.5045275900000000    0.3745318352059925 C
   0.3569109900000000    0.5178540900000000    0.3745318352059925 C
   0.3697249300000000    0.5311805900000000    0.3745318352059925 C
   0.3825388700000000    0.5445070900000000    0.3745318352059925 C
   0.3953528099999999    0.5578335900000000    0.3745318352059925 C
   0.4081667500000000    0.5711600900000000    0.3745318352059925 C
   0.4209806900000000    0.5844865900000000    0.3745318352059925 C
   0.4337946400000000    0.5978130900000000    0.3745318352059925 C
   0.4466085799999999    0.6111395900000000    0.3745318352059925 C
   0.4594225200000000    0.6244660900000000    0.3745318352059925 C
   0.4722364600000002    0.6377925799999999    0.3745318352059925 C
   0.4850503999999999    0.6511190800000000    0.3745318352059925 C
   0.4978643399999999    0.6644455800000000    0.3745318352059925 C
   0.5106782800000000    0.6777720799999999    0.3745318352059925 C
   0.5234922300000000    0.6910985800000000    0.3745318352059925 C
   0.5363061699999999    0.7044250799999999    0.3745318352059925 C
   0.5491201099999999    0.7177515799999999    0.3745318352059925 C
   0.5619340499999999    0.7310780800000000    0.3745318352059925 C
   0.5747479899999998    0.7444045800000000    0.3745318352059925 C
   0.5875619299999999    0.7577310800000000    0.3745318352059925 C
   0.6003758800000000    0.7710575800000000    0.3745318352059925 C
   0.6131898200000000    0.7843840800000000    0.3745318352059925 C
   0.6260037599999999    0.7977105799999999    0.3745318352059925 C
   0.6388177000000000    0.8110370800000001    0.3745318352059925 C
   0.6516316400000000    0.8243635700000002    0.3745318352059925 C
   0.6644455800000002    0.8376900700000000    0.3745318352059925 C
   0.6772595300000003    0.8510165699999999    0.3745318352059925 C
   0.6900734699999997    0.8643430700000000    0.3745318352059925 C
   0.7028874100000001    0.8776695699999999    0.3745318352059925 C
   0.7157013500000000    0.8909960699999999    0.3745318352059925 C
   0.7285152900000001    0.9043225699999999    0.3745318352059925 C
   0.7413292300000001    0.9176490700000000    0.3745318352059925 C
   0.7541431700000000    0.9309755700000000    0.3745318352059925 C
   0.7669571199999998    0.9443020700000000    0.3745318352059925 C
   0.7797710600000002    0.9576285700000000    0.3745318352059925 C
   0.7925849999999999    0.9709550700000000    0.3745318352059925 C
   0.8053989399999998    0.9842815700000002    0.3745318352059925 C
   0.8182128799999997    0.9976080600000001    0.3745318352059925 C
   0.0242610600000000    0.1318981700000000    0.3745318352059925 C
   0.0370750000000000    0.1452246700000000    0.3745318352059925 C
   0.0498889500000000    0.1585511700000000    0.3745318352059925 C
   0.0627028900000000    0.1718776700000000    0.3745318352059925 C
   0.0755168300000000    0.1852041700000000    0.3745318352059925 C
   0.0883307700000000    0.1985306700000000    0.3745318352059925 C
   0.1011447100000000    0.2118571700000000    0.3745318352059925 C
   0.1139586500000000    0.2251836700000000    0.3745318352059925 C
   0.1267726000000000    0.2385101700000000    0.3745318352059925 C
   0.1395865400000001    0.2518366600000000    0.3745318352059925 C
   0.1524004800000000    0.2651631600000000    0.3745318352059925 C
   0.1652144199999999    0.2784896600000000    0.3745318352059925 C
   0.1780283600000000    0.2918161600000000    0.3745318352059925 C
   0.1908422999999999    0.3051426600000000    0.3745318352059925 C
   0.2036562399999999    0.3184691600000000    0.3745318352059925 C
   0.2164701900000000    0.3317956600000000    0.3745318352059925 C
   0.2292841300000000    0.3451221600000000    0.3745318352059925 C
   0.2420980700000000    0.3584486600000000    0.3745318352059925 C
   0.2549120100000000    0.3717751600000000    0.3745318352059925 C
   0.2677259499999999    0.3851016600000000    0.3745318352059925 C
   0.2805398900000000    0.3984281600000000    0.3745318352059925 C
   0.2933538400000000    0.4117546600000000    0.3745318352059925 C
   0.3061677799999999    0.4250811500000000    0.3745318352059925 C
   0.3189817199999999    0.4384076500000000    0.3745318352059925 C
   0.3317956599999998    0.4517341500000001    0.3745318352059925 C
   0.3446096000000000    0.4650606500000001    0.3745318352059925 C
   0.3574235400000002    0.4783871499999999    0.3745318352059925 C
   0.3702374900000002    0.4917136499999999    0.3745318352059925 C
   0.3830514300000000    0.5050401500000000    0.3745318352059925 C
   0.3958653700000000    0.5183666500000000    0.3745318352059925 C
   0.4086793099999999    0.5316931499999999    0.3745318352059925 C
   0.4214932499999999    0.5450196500000000    0.3745318352059925 C
   0.4343071900000001    0.5583461500000000    0.3745318352059925 C
   0.4471211300000000    0.5716726500000000    0.3745318352059925 C
   0.4599350799999999    0.5849991500000000    0.3745318352059925 C
   0.4727490199999998    0.5983256400000000    0.3745318352059925 C
   0.4855629599999999    0.6116521400000000    0.3745318352059925 C
   0.4983769000000001    0.6249786399999999    0.3745318352059925 C
   0.5111908400000000    0.6383051399999999    0.3745318352059925 C
   0.5240047799999998    0.6516316400000000    0.3745318352059925 C
   0.5368187300000000    0.6649581400000000    0.3745318352059925 C
   0.5496326699999999    0.6782846399999999    0.3745318352059925 C
   0.5624466099999997    0.6916111399999999    0.3745318352059925 C
   0.5752605500000001    0.7049376399999999    0.3745318352059925 C
   0.5880744899999999    0.7182641399999999    0.3745318352059925 C
   0.6008884300000000    0.7315906400000000    0.3745318352059925 C
   0.6137023699999998    0.7449171400000000    0.3745318352059925 C
   0.6265163199999999    0.7582436400000000    0.3745318352059925 C
   0.6393302600000003    0.7715701300000001    0.3745318352059925 C
   0.6521441999999997    0.7848966300000000    0.3745318352059925 C
   0.6649581399999996    0.7982231300000001    0.3745318352059925 C
   0.6777720800000000    0.8115496300000000    0.3745318352059925 C
   0.6905860200000001    0.8248761300000002    0.3745318352059925 C
   0.7033999700000001    0.8382026299999999    0.3745318352059925 C
   0.7162139100000000    0.8515291299999999    0.3745318352059925 C
   0.7290278500000001    0.8648556299999999    0.3745318352059925 C
   0.7418417899999998    0.8781821299999999    0.3745318352059925 C
   0.7546557300000000    0.8915086299999999    0.3745318352059925 C
   0.7674696699999999    0.9048351299999999    0.3745318352059925 C
   0.7802836200000000    0.9181616300000000    0.3745318352059925 C
   0.7930975600000001    0.9314881300000000    0.3745318352059925 C
   0.8059115000000000    0.9448146200000000    0.3745318352059925 C
   0.8187254399999999    0.9581411200000000    0.3745318352059925 C
   0.8315393799999998    0.9714676200000001    0.3745318352059925 C
   0.8443533199999999    0.9847941200000000    0.3745318352059925 C
   0.8571672599999999    0.9981206200000001    0.3745318352059925 C
   0.0247736200000000    0.0924312300000000    0.3745318352059925 C
   0.0375875600000000    0.1057577300000000    0.3745318352059925 C
   0.0504015000000000    0.1190842300000000    0.3745318352059925 C
   0.0632154500000000    0.1324107300000000    0.3745318352059925 C
   0.0760293900000000    0.1457372300000000    0.3745318352059925 C
   0.0888433300000000    0.1590637300000000    0.3745318352059925 C
   0.1016572700000000    0.1723902300000000    0.3745318352059925 C
   0.1144712100000000    0.1857167300000000    0.3745318352059925 C
   0.1272851500000000    0.1990432300000000    0.3745318352059925 C
   0.1400990900000000    0.2123697200000000    0.3745318352059925 C
   0.1529130400000000    0.2256962200000000    0.3745318352059925 C
   0.1657269800000000    0.2390227200000000    0.3745318352059925 C
   0.1785409200000000    0.2523492200000000    0.3745318352059925 C
   0.1913548600000000    0.2656757200000000    0.3745318352059925 C
   0.2041688000000000    0.2790022200000000    0.3745318352059925 C
   0.2169827400000001    0.2923287200000000    0.3745318352059925 C
   0.2297966899999999    0.3056552200000000    0.3745318352059925 C
   0.2426106299999999    0.3189817200000000    0.3745318352059925 C
   0.2554245700000000    0.3323082200000000    0.3745318352059925 C
   0.2682385099999999    0.3456347200000001    0.3745318352059925 C
   0.2810524499999999    0.3589612200000001    0.3745318352059925 C
   0.2938663900000000    0.3722877200000000    0.3745318352059925 C
   0.3066803300000000    0.3856142100000000    0.3745318352059925 C
   0.3194942800000001    0.3989407100000000    0.3745318352059925 C
   0.3323082199999999    0.4122672100000000    0.3745318352059925 C
   0.3451221600000001    0.4255937100000000    0.3745318352059925 C
   0.3579360999999999    0.4389202100000000    0.3745318352059925 C
   0.3707500399999999    0.4522467100000001    0.3745318352059925 C
   0.3835639800000000    0.4655732100000001    0.3745318352059925 C
   0.3963779300000001    0.4788997099999999    0.3745318352059925 C
   0.4091918700000001    0.4922262099999999    0.3745318352059925 C
   0.4220058100000000    0.5055527100000000    0.3745318352059925 C
   0.4348197500000000    0.5188792100000000    0.3745318352059925 C
   0.4476336900000000    0.5322057100000001    0.3745318352059925 C
   0.4604476299999999    0.5455322100000000    0.3745318352059925 C
   0.4732615800000002    0.5588587000000000    0.3745318352059925 C
   0.4860755199999999    0.5721851999999999    0.3745318352059925 C
   0.4988894599999998    0.5855117000000000    0.3745318352059925 C
   0.5117034000000000    0.5988382000000000    0.3745318352059925 C
   0.5245173400000003    0.6121647000000000    0.3745318352059925 C
   0.5373312799999999    0.6254912000000001    0.3745318352059925 C
   0.5501452200000000    0.6388177000000000    0.3745318352059925 C
   0.5629591700000000    0.6521442000000000    0.3745318352059925 C
   0.5757731099999999    0.6654707000000000    0.3745318352059925 C
   0.5885870499999999    0.6787972000000000    0.3745318352059925 C
   0.6014009900000000    0.6921237000000001    0.3745318352059925 C
   0.6142149300000002    0.7054501999999999    0.3745318352059925 C
   0.6270288699999998    0.7187766999999999    0.3745318352059925 C
   0.6398428199999999    0.7321031900000000    0.3745318352059925 C
   0.6526567599999999    0.7454296900000000    0.3745318352059925 C
   0.6654706999999997    0.7587561900000001    0.3745318352059925 C
   0.6782846400000000    0.7720826900000001    0.3745318352059925 C
   0.6910985800000001    0.7854091900000000    0.3745318352059925 C
   0.7039125200000000    0.7987356900000001    0.3745318352059925 C
   0.7167264700000001    0.8120621900000000    0.3745318352059925 C
   0.7295404100000000    0.8253886900000000    0.3745318352059925 C
   0.7423543499999999    0.8387151900000001    0.3745318352059925 C
   0.7551682900000000    0.8520416899999999    0.3745318352059925 C
   0.7679822300000001    0.8653681899999999    0.3745318352059925 C
   0.7807961700000000    0.8786946899999999    0.3745318352059925 C
   0.7936101100000001    0.8920211899999999    0.3745318352059925 C
   0.8064240600000002    0.9053476800000000    0.3745318352059925 C
   0.8192379999999999    0.9186741800000000    0.3745318352059925 C
   0.8320519399999998    0.9320006800000000    0.3745318352059925 C
   0.8448658800000000    0.9453271800000000    0.3745318352059925 C
   0.8576798200000000    0.9586536800000000    0.3745318352059925 C
   0.8704937600000000    0.9719801800000001    0.3745318352059925 C
   0.8833077099999997    0.9853066800000000    0.3745318352059925 C
   0.8961216499999998    0.9986331800000001    0.3745318352059925 C
   0.0252861800000000    0.0529642900000000    0.3745318352059925 C
   0.0381001200000000    0.0662907900000000    0.3745318352059925 C
   0.0509140600000000    0.0796172900000000    0.3745318352059925 C
   0.0637280000000000    0.0929437900000000    0.3745318352059925 C
   0.0765419400000000    0.1062702900000000    0.3745318352059925 C
   0.0893558900000000    0.1195967900000000    0.3745318352059925 C
   0.1021698300000000    0.1329232900000000    0.3745318352059925 C
   0.1149837700000000    0.1462497900000000    0.3745318352059925 C
   0.1277977100000000    0.1595762900000000    0.3745318352059925 C
   0.1406116500000000    0.1729027800000000    0.3745318352059925 C
   0.1534255900000000    0.1862292800000000    0.3745318352059925 C
   0.1662395400000000    0.1995557800000000    0.3745318352059925 C
   0.1790534800000000    0.2128822800000000    0.3745318352059925 C
   0.1918674200000000    0.2262087800000000    0.3745318352059925 C
   0.2046813600000000    0.2395352800000000    0.3745318352059925 C
   0.2174953000000000    0.2528617800000000    0.3745318352059925 C
   0.2303092399999999    0.2661882800000000    0.3745318352059925 C
   0.2431231799999999    0.2795147800000000    0.3745318352059925 C
   0.2559371300000000    0.2928412800000000    0.3745318352059925 C
   0.2687510700000000    0.3061677800000000    0.3745318352059925 C
   0.2815650100000000    0.3194942800000000    0.3745318352059925 C
   0.2943789500000000    0.3328207800000000    0.3745318352059925 C
   0.3071928899999999    0.3461472700000000    0.3745318352059925 C
   0.3200068300000000    0.3594737700000000    0.3745318352059925 C
   0.3328207799999999    0.3728002700000000    0.3745318352059925 C
   0.3456347199999999    0.3861267700000000    0.3745318352059925 C
   0.3584486600000001    0.3994532700000000    0.3745318352059925 C
   0.3712626000000000    0.4127797700000000    0.3745318352059925 C
   0.3840765399999999    0.4261062700000001    0.3745318352059925 C
   0.3968904799999999    0.4394327700000000    0.3745318352059925 C
   0.4097044300000000    0.4527592700000000    0.3745318352059925 C
   0.4225183699999998    0.4660857700000000    0.3745318352059925 C
   0.4353323100000000    0.4794122700000000    0.3745318352059925 C
   0.4481462499999999    0.4927387700000000    0.3745318352059925 C
   0.4609601899999999    0.5060652700000000    0.3745318352059925 C
   0.4737741300000000    0.5193917600000000    0.3745318352059925 C
   0.4865880699999999    0.5327182600000000    0.3745318352059925 C
   0.4994020200000000    0.5460447600000000    0.3745318352059925 C
   0.5122159599999999    0.5593712600000000    0.3745318352059925 C
   0.5250299000000002    0.5726977599999999    0.3745318352059925 C
   0.5378438400000000    0.5860242600000000    0.3745318352059925 C
   0.5506577800000000    0.5993507600000000    0.3745318352059925 C
   0.5634717200000000    0.6126772600000000    0.3745318352059925 C
   0.5762856700000000    0.6260037600000000    0.3745318352059925 C
   0.5890996100000000    0.6393302600000000    0.3745318352059925 C
   0.6019135499999999    0.6526567599999999    0.3745318352059925 C
   0.6147274899999998    0.6659832600000000    0.3745318352059925 C
   0.6275414299999998    0.6793097600000000    0.3745318352059925 C
   0.6403553700000002    0.6926362500000000    0.3745318352059925 C
   0.6531693100000001    0.7059627500000000    0.3745318352059925 C
   0.6659832599999999    0.7192892500000000    0.3745318352059925 C
   0.6787972000000001    0.7326157500000000    0.3745318352059925 C
   0.6916111399999999    0.7459422500000000    0.3745318352059925 C
   0.7044250799999999    0.7592687500000000    0.3745318352059925 C
   0.7172390199999997    0.7725952499999998    0.3745318352059925 C
   0.7300529600000001    0.7859217500000000    0.3745318352059925 C
   0.7428669099999999    0.7992482499999999    0.3745318352059925 C
   0.7556808500000001    0.8125747500000000    0.3745318352059925 C
   0.7684947900000000    0.8259012499999999    0.3745318352059925 C
   0.7813087299999999    0.8392277500000001    0.3745318352059925 C
   0.7941226699999999    0.8525542499999998    0.3745318352059925 C
   0.8069366099999999    0.8658807400000000    0.3745318352059925 C
   0.8197505600000001    0.8792072399999999    0.3745318352059925 C
   0.8325645000000000    0.8925337400000000    0.3745318352059925 C
   0.8453784400000000    0.9058602400000000    0.3745318352059925 C
   0.8581923800000001    0.9191867400000000    0.3745318352059925 C
   0.8710063200000000    0.9325132400000000    0.3745318352059925 C
   0.8838202599999997    0.9458397400000002    0.3745318352059925 C
   0.8966341999999999    0.9591662399999999    0.3745318352059925 C
   0.9094481499999999    0.9724927400000001    0.3745318352059925 C
   0.9222620899999999    0.9858192400000000    0.3745318352059925 C
   0.9350760299999995    0.9991457400000000    0.3745318352059925 C
   0.0129847900000000    0.0001708500000000    0.3745318352059925 C
   0.0257987400000000    0.0134973500000000    0.3745318352059925 C
   0.0386126800000000    0.0268238500000000    0.3745318352059925 C
   0.0514266200000000    0.0401503500000000    0.3745318352059925 C
   0.0642405600000000    0.0534768500000000    0.3745318352059925 C
   0.0770545000000000    0.0668033500000000    0.3745318352059925 C
   0.0898684400000000    0.0801298500000000    0.3745318352059925 C
   0.1026823900000000    0.0934563500000000    0.3745318352059925 C
   0.1154963300000000    0.1067828500000000    0.3745318352059925 C
   0.1283102700000000    0.1201093500000000    0.3745318352059925 C
   0.1411242100000000    0.1334358400000000    0.3745318352059925 C
   0.1539381500000000    0.1467623400000000    0.3745318352059925 C
   0.1667520900000000    0.1600888400000000    0.3745318352059925 C
   0.1795660300000000    0.1734153400000000    0.3745318352059925 C
   0.1923799800000000    0.1867418400000000    0.3745318352059925 C
   0.2051939200000001    0.2000683400000000    0.3745318352059925 C
   0.2180078600000000    0.2133948400000000    0.3745318352059925 C
   0.2308218000000000    0.2267213400000000    0.3745318352059925 C
   0.2436357400000000    0.2400478400000000    0.3745318352059925 C
   0.2564496800000000    0.2533743400000000    0.3745318352059925 C
   0.2692636300000000    0.2667008400000000    0.3745318352059925 C
   0.2820775699999999    0.2800273400000000    0.3745318352059925 C
   0.2948915100000000    0.2933538400000000    0.3745318352059925 C
   0.3077054500000000    0.3066803300000000    0.3745318352059925 C
   0.3205193900000000    0.3200068300000000    0.3745318352059925 C
   0.3333333333333332    0.3333333333333334    0.3745318352059925 C
   0.3461472700000000    0.3466598299999999    0.3745318352059925 C
   0.3589612200000000    0.3599863300000000    0.3745318352059925 C
   0.3717751600000001    0.3733128300000000    0.3745318352059925 C
   0.3845890999999999    0.3866393300000000    0.3745318352059925 C
   0.3974030400000002    0.3999658300000000    0.3745318352059925 C
   0.4102169800000000    0.4132923300000000    0.3745318352059925 C
   0.4230309199999999    0.4266188300000001    0.3745318352059925 C
   0.4358448700000001    0.4399453300000001    0.3745318352059925 C
   0.4486588099999999    0.4532718300000000    0.3745318352059925 C
   0.4614727500000000    0.4665983300000000    0.3745318352059925 C
   0.4742866899999999    0.4799248200000000    0.3745318352059925 C
   0.4871006299999999    0.4932513200000000    0.3745318352059925 C
   0.4999145700000001    0.5065778200000000    0.3745318352059925 C
   0.5127285200000000    0.5199043200000000    0.3745318352059925 C
   0.5255424599999999    0.5332308200000000    0.3745318352059925 C
   0.5383563999999998    0.5465573200000000    0.3745318352059925 C
   0.5511703400000001    0.5598838200000000    0.3745318352059925 C
   0.5639842800000000    0.5732103200000001    0.3745318352059925 C
   0.5767982200000000    0.5865368200000000    0.3745318352059925 C
   0.5896121599999999    0.5998633200000000    0.3745318352059925 C
   0.6024261100000002    0.6131898200000000    0.3745318352059925 C
   0.6152400500000000    0.6265163200000000    0.3745318352059925 C
   0.6280539899999998    0.6398428200000000    0.3745318352059925 C
   0.6408679299999999    0.6531693099999999    0.3745318352059925 C
   0.6536818699999999    0.6664958099999999    0.3745318352059925 C
   0.6664958099999998    0.6798223100000002    0.3745318352059925 C
   0.6793097600000002    0.6931488099999999    0.3745318352059925 C
   0.6921237000000000    0.7064753100000000    0.3745318352059925 C
   0.7049376400000003    0.7198018100000000    0.3745318352059925 C
   0.7177515799999998    0.7331283100000000    0.3745318352059925 C
   0.7305655200000000    0.7464548100000001    0.3745318352059925 C
   0.7433794600000001    0.7597813100000000    0.3745318352059925 C
   0.7561934099999996    0.7731078099999998    0.3745318352059925 C
   0.7690073499999998    0.7864343100000000    0.3745318352059925 C
   0.7818212899999999    0.7997608099999999    0.3745318352059925 C
   0.7946352300000000    0.8130873100000000    0.3745318352059925 C
   0.8074491699999999    0.8264138000000001    0.3745318352059925 C
   0.8202631099999996    0.8397403000000000    0.3745318352059925 C
   0.8330770500000000    0.8530668000000001    0.3745318352059925 C
   0.8458909999999998    0.8663933000000000    0.3745318352059925 C
   0.8587049399999998    0.8797198000000002    0.3745318352059925 C
   0.8715188800000000    0.8930463000000000    0.3745318352059925 C
   0.8843328199999999    0.9063728000000000    0.3745318352059925 C
   0.8971467599999998    0.9196993000000001    0.3745318352059925 C
   0.9099607000000000    0.9330258000000000    0.3745318352059925 C
   0.9227746500000000    0.9463523000000001    0.3745318352059925 C
   0.9355885900000002    0.9596788000000001    0.3745318352059925 C
   0.9484025299999999    0.9730053000000000    0.3745318352059925 C
   0.9612164699999999    0.9863318000000000    0.3745318352059925 C
   0.9740304100000000    0.9996582900000001    0.3745318352059925 C
   0.0519391800000000    0.0006834100000000    0.3745318352059925 C
   0.0647531200000000    0.0140099100000000    0.3745318352059925 C
   0.0775670600000000    0.0273364100000000    0.3745318352059925 C
   0.0903810000000000    0.0406629100000000    0.3745318352059925 C
   0.1031949400000000    0.0539894100000000    0.3745318352059925 C
   0.1160088800000000    0.0673159100000000    0.3745318352059925 C
   0.1288228300000000    0.0806424100000000    0.3745318352059925 C
   0.1416367700000000    0.0939689000000000    0.3745318352059925 C
   0.1544507100000000    0.1072954000000000    0.3745318352059925 C
   0.1672646500000000    0.1206219000000000    0.3745318352059925 C
   0.1800785900000000    0.1339484000000000    0.3745318352059925 C
   0.1928925300000000    0.1472749000000000    0.3745318352059925 C
   0.2057064800000000    0.1606014000000000    0.3745318352059925 C
   0.2185204200000000    0.1739279000000000    0.3745318352059925 C
   0.2313343599999999    0.1872544000000000    0.3745318352059925 C
   0.2441483000000000    0.2005809000000000    0.3745318352059925 C
   0.2569622400000000    0.2139074000000000    0.3745318352059925 C
   0.2697761800000000    0.2272339000000000    0.3745318352059925 C
   0.2825901199999999    0.2405604000000000    0.3745318352059925 C
   0.2954040700000000    0.2538869000000000    0.3745318352059925 C
   0.3082180099999999    0.2672133900000000    0.3745318352059925 C
   0.3210319500000000    0.2805398900000000    0.3745318352059925 C
   0.3338458899999999    0.2938663900000000    0.3745318352059925 C
   0.3466598300000000    0.3071928900000000    0.3745318352059925 C
   0.3594737700000000    0.3205193900000000    0.3745318352059925 C
   0.3722877200000000    0.3338458900000000    0.3745318352059925 C
   0.3851016600000000    0.3471723899999999    0.3745318352059925 C
   0.3979155999999999    0.3604988900000000    0.3745318352059925 C
   0.4107295400000001    0.3738253900000000    0.3745318352059925 C
   0.4235434800000001    0.3871518900000000    0.3745318352059925 C
   0.4363574200000000    0.4004783900000000    0.3745318352059925 C
   0.4491713700000000    0.4138048900000000    0.3745318352059925 C
   0.4619853100000000    0.4271313900000001    0.3745318352059925 C
   0.4747992500000001    0.4404578800000000    0.3745318352059925 C
   0.4876131900000000    0.4537843800000000    0.3745318352059925 C
   0.5004271299999999    0.4671108800000000    0.3745318352059925 C
   0.5132410700000001    0.4804373800000000    0.3745318352059925 C
   0.5260550099999999    0.4937638800000000    0.3745318352059925 C
   0.5388689600000000    0.5070903800000000    0.3745318352059925 C
   0.5516828999999999    0.5204168800000000    0.3745318352059925 C
   0.5644968400000000    0.5337433800000000    0.3745318352059925 C
   0.5773107799999999    0.5470698800000000    0.3745318352059925 C
   0.5901247200000002    0.5603963800000000    0.3745318352059925 C
   0.6029386599999998    0.5737228800000000    0.3745318352059925 C
   0.6157526099999999    0.5870493800000000    0.3745318352059925 C
   0.6285665499999998    0.6003758800000000    0.3745318352059925 C
   0.6413804900000000    0.6137023700000001    0.3745318352059925 C
   0.6541944300000000    0.6270288700000000    0.3745318352059925 C
   0.6670083699999997    0.6403553699999999    0.3745318352059925 C
   0.6798223099999999    0.6536818699999999    0.3745318352059925 C
   0.6926362499999998    0.6670083699999999    0.3745318352059925 C
   0.7054501999999999    0.6803348700000001    0.3745318352059925 C
   0.7182641400000001    0.6936613700000001    0.3745318352059925 C
   0.7310780799999997    0.7069878700000000    0.3745318352059925 C
   0.7438920200000001    0.7203143700000001    0.3745318352059925 C
   0.7567059600000000    0.7336408700000000    0.3745318352059925 C
   0.7695198999999997    0.7469673700000001    0.3745318352059925 C
   0.7823338499999998    0.7602938700000000    0.3745318352059925 C
   0.7951477899999999    0.7736203699999998    0.3745318352059925 C
   0.8079617299999999    0.7869468599999999    0.3745318352059925 C
   0.8207756699999996    0.8002733600000000    0.3745318352059925 C
   0.8335896099999998    0.8135998600000000    0.3745318352059925 C
   0.8464035499999999    0.8269263600000001    0.3745318352059925 C
   0.8592174999999997    0.8402528600000000    0.3745318352059925 C
   0.8720314400000001    0.8535793600000001    0.3745318352059925 C
   0.8848453799999997    0.8669058600000000    0.3745318352059925 C
   0.8976593199999997    0.8802323600000002    0.3745318352059925 C
   0.9104732600000002    0.8935588600000001    0.3745318352059925 C
   0.9232872000000001    0.9068853600000000    0.3745318352059925 C
   0.9361011400000000    0.9202118600000001    0.3745318352059925 C
   0.9489150900000003    0.9335383600000000    0.3745318352059925 C
   0.9617290299999998    0.9468648600000001    0.3745318352059925 C
   0.9745429699999998    0.9601913499999999    0.3745318352059925 C
   0.9873569099999999    0.9735178500000000    0.3745318352059925 C
   0.0001708500000000    0.9868443499999999    0.3745318352059925 C
   0.0908935600000000    0.0011959700000000    0.3745318352059925 C
   0.1037075000000000    0.0145224700000000    0.3745318352059925 C
   0.1165214400000000    0.0278489700000000    0.3745318352059925 C
   0.1293353800000000    0.0411754700000000    0.3745318352059925 C
   0.1421493300000000    0.0545019600000000    0.3745318352059925 C
   0.1549632700000000    0.0678284600000000    0.3745318352059925 C
   0.1677772100000000    0.0811549600000000    0.3745318352059925 C
   0.1805911500000000    0.0944814600000000    0.3745318352059925 C
   0.1934050900000000    0.1078079600000000    0.3745318352059925 C
   0.2062190300000000    0.1211344600000000    0.3745318352059925 C
   0.2190329700000000    0.1344609600000000    0.3745318352059925 C
   0.2318469200000001    0.1477874600000000    0.3745318352059925 C
   0.2446608600000000    0.1611139600000000    0.3745318352059925 C
   0.2574747999999999    0.1744404600000000    0.3745318352059925 C
   0.2702887400000000    0.1877669600000000    0.3745318352059925 C
   0.2831026800000000    0.2010934600000000    0.3745318352059925 C
   0.2959166200000001    0.2144199600000000    0.3745318352059925 C
   0.3087305700000000    0.2277464500000000    0.3745318352059925 C
   0.3215445100000000    0.2410729500000000    0.3745318352059925 C
   0.3343584500000000    0.2543994500000000    0.3745318352059925 C
   0.3471723900000001    0.2677259500000000    0.3745318352059925 C
   0.3599863300000000    0.2810524500000000    0.3745318352059925 C
   0.3728002699999999    0.2943789500000000    0.3745318352059925 C
   0.3856142100000000    0.3077054500000000    0.3745318352059925 C
   0.3984281600000001    0.3210319500000000    0.3745318352059925 C
   0.4112421000000000    0.3343584500000000    0.3745318352059925 C
   0.4240560400000000    0.3476849499999999    0.3745318352059925 C
   0.4368699800000000    0.3610114500000000    0.3745318352059925 C
   0.4496839200000000    0.3743379500000000    0.3745318352059925 C
   0.4624978599999999    0.3876644500000000    0.3745318352059925 C
   0.4753118100000000    0.4009909400000000    0.3745318352059925 C
   0.4881257500000001    0.4143174399999999    0.3745318352059925 C
   0.5009396900000000    0.4276439399999999    0.3745318352059925 C
   0.5137536300000001    0.4409704400000000    0.3745318352059925 C
   0.5265675700000000    0.4542969400000000    0.3745318352059925 C
   0.5393815100000000    0.4676234400000000    0.3745318352059925 C
   0.5521954600000001    0.4809499400000000    0.3745318352059925 C
   0.5650094000000000    0.4942764400000000    0.3745318352059925 C
   0.5778233400000000    0.5076029399999999    0.3745318352059925 C
   0.5906372799999999    0.5209294400000000    0.3745318352059925 C
   0.6034512199999997    0.5342559400000000    0.3745318352059925 C
   0.6162651599999999    0.5475824400000000    0.3745318352059925 C
   0.6290790999999999    0.5609089400000000    0.3745318352059925 C
   0.6418930499999999    0.5742354300000000    0.3745318352059925 C
   0.6547069900000000    0.5875619300000000    0.3745318352059925 C
   0.6675209299999998    0.6008884300000000    0.3745318352059925 C
   0.6803348699999999    0.6142149300000000    0.3745318352059925 C
   0.6931488099999998    0.6275414300000000    0.3745318352059925 C
   0.7059627500000002    0.6408679300000000    0.3745318352059925 C
   0.7187767000000000    0.6541944300000000    0.3745318352059925 C
   0.7315906400000000    0.6675209300000000    0.3745318352059925 C
   0.7444045800000001    0.6808474300000001    0.3745318352059925 C
   0.7572185200000000    0.6941739300000001    0.3745318352059925 C
   0.7700324600000001    0.7075004300000000    0.3745318352059925 C
   0.7828464000000001    0.7208269300000001    0.3745318352059925 C
   0.7956603500000001    0.7341534300000000    0.3745318352059925 C
   0.8084742899999999    0.7474799200000000    0.3745318352059925 C
   0.8212882299999996    0.7608064199999999    0.3745318352059925 C
   0.8341021699999998    0.7741329200000000    0.3745318352059925 C
   0.8469161100000001    0.7874594199999999    0.3745318352059925 C
   0.8597300499999998    0.8007859200000000    0.3745318352059925 C
   0.8725439899999998    0.8141124199999999    0.3745318352059925 C
   0.8853579400000000    0.8274389200000001    0.3745318352059925 C
   0.8981718799999998    0.8407654200000000    0.3745318352059925 C
   0.9109858199999996    0.8540919200000001    0.3745318352059925 C
   0.9237997600000001    0.8674184200000000    0.3745318352059925 C
   0.9366136999999999    0.8807449200000000    0.3745318352059925 C
   0.9494276399999999    0.8940714200000001    0.3745318352059925 C
   0.9622415900000000    0.9073979200000000    0.3745318352059925 C
   0.9750555300000001    0.9207244100000000    0.3745318352059925 C
   0.9878694700000001    0.9340509099999998    0.3745318352059925 C
   0.0006834100000000    0.9473774100000000    0.3745318352059925 C
   0.1298479400000000    0.0017085300000000    0.3745318352059925 C
   0.1426618800000000    0.0150350200000000    0.3745318352059925 C
   0.1554758200000000    0.0283615200000000    0.3745318352059925 C
   0.1682897700000000    0.0416880200000000    0.3745318352059925 C
   0.1811037100000000    0.0550145200000000    0.3745318352059925 C
   0.1939176500000000    0.0683410200000000    0.3745318352059925 C
   0.2067315900000000    0.0816675200000000    0.3745318352059925 C
   0.2195455300000000    0.0949940200000000    0.3745318352059925 C
   0.2323594700000000    0.1083205200000000    0.3745318352059925 C
   0.2451734200000000    0.1216470200000000    0.3745318352059925 C
   0.2579873599999999    0.1349735200000000    0.3745318352059925 C
   0.2708013000000000    0.1483000200000000    0.3745318352059925 C
   0.2836152400000000    0.1616265200000000    0.3745318352059925 C
   0.2964291800000000    0.1749530200000000    0.3745318352059925 C
   0.3092431199999999    0.1882795100000000    0.3745318352059925 C
   0.3220570600000000    0.2016060100000000    0.3745318352059925 C
   0.3348710099999999    0.2149325100000000    0.3745318352059925 C
   0.3476849500000000    0.2282590100000000    0.3745318352059925 C
   0.3604988900000000    0.2415855100000000    0.3745318352059925 C
   0.3733128300000000    0.2549120100000000    0.3745318352059925 C
   0.3861267700000000    0.2682385100000000    0.3745318352059925 C
   0.3989407100000000    0.2815650100000000    0.3745318352059925 C
   0.4117546600000001    0.2948915100000000    0.3745318352059925 C
   0.4245686000000000    0.3082180100000000    0.3745318352059925 C
   0.4373825400000000    0.3215445100000000    0.3745318352059925 C
   0.4501964800000001    0.3348710100000000    0.3745318352059925 C
   0.4630104199999999    0.3481975099999999    0.3745318352059925 C
   0.4758243600000001    0.3615240000000000    0.3745318352059925 C
   0.4886383099999999    0.3748504999999999    0.3745318352059925 C
   0.5014522500000000    0.3881769999999999    0.3745318352059925 C
   0.5142661899999998    0.4015035000000000    0.3745318352059925 C
   0.5270801300000001    0.4148299999999999    0.3745318352059925 C
   0.5398940700000000    0.4281564999999999    0.3745318352059925 C
   0.5527080100000000    0.4414830000000000    0.3745318352059925 C
   0.5655219500000002    0.4548095000000000    0.3745318352059925 C
   0.5783359000000000    0.4681360000000000    0.3745318352059925 C
   0.5911498400000000    0.4814625000000001    0.3745318352059925 C
   0.6039637800000000    0.4947890000000000    0.3745318352059925 C
   0.6167777200000000    0.5081155000000001    0.3745318352059925 C
   0.6295916599999999    0.5214420000000000    0.3745318352059925 C
   0.6424056000000000    0.5347684900000000    0.3745318352059925 C
   0.6552195500000000    0.5480949899999999    0.3745318352059925 C
   0.6680334900000000    0.5614214900000000    0.3745318352059925 C
   0.6808474300000000    0.5747479900000000    0.3745318352059925 C
   0.6936613700000001    0.5880744900000000    0.3745318352059925 C
   0.7064753099999999    0.6014009900000000    0.3745318352059925 C
   0.7192892500000000    0.6147274900000000    0.3745318352059925 C
   0.7321031900000000    0.6280539900000000    0.3745318352059925 C
   0.7449171400000001    0.6413804900000001    0.3745318352059925 C
   0.7577310800000000    0.6547069900000000    0.3745318352059925 C
   0.7705450199999999    0.6680334900000000    0.3745318352059925 C
   0.7833589600000000    0.6813599900000000    0.3745318352059925 C
   0.7961729000000000    0.6946864900000000    0.3745318352059925 C
   0.8089868399999999    0.7080129800000001    0.3745318352059925 C
   0.8218007899999997    0.7213394800000000    0.3745318352059925 C
   0.8346147299999996    0.7346659800000002    0.3745318352059925 C
   0.8474286700000001    0.7479924800000000    0.3745318352059925 C
   0.8602426100000002    0.7613189799999999    0.3745318352059925 C
   0.8730565499999999    0.7746454800000000    0.3745318352059925 C
   0.8858704899999997    0.7879719799999999    0.3745318352059925 C
   0.8986844399999997    0.8012984800000000    0.3745318352059925 C
   0.9114983799999999    0.8146249799999999    0.3745318352059925 C
   0.9243123200000000    0.8279514800000001    0.3745318352059925 C
   0.9371262600000002    0.8412779800000000    0.3745318352059925 C
   0.9499401999999996    0.8546044800000000    0.3745318352059925 C
   0.9627541399999998    0.8679309800000000    0.3745318352059925 C
   0.9755680799999997    0.8812574700000001    0.3745318352059925 C
   0.9883820300000000    0.8945839700000000    0.3745318352059925 C
   0.0011959700000000    0.9079104700000001    0.3745318352059925 C
   0.1688023200000000    0.0022210800000000    0.3745318352059925 C
   0.1816162700000000    0.0155475800000000    0.3745318352059925 C
   0.1944302100000000    0.0288740800000000    0.3745318352059925 C
   0.2072441500000000    0.0422005800000000    0.3745318352059925 C
   0.2200580900000000    0.0555270800000000    0.3745318352059925 C
   0.2328720300000000    0.0688535800000000    0.3745318352059925 C
   0.2456859700000000    0.0821800800000000    0.3745318352059925 C
   0.2584999099999999    0.0955065800000000    0.3745318352059925 C
   0.2713138600000000    0.1088330800000000    0.3745318352059925 C
   0.2841278000000000    0.1221595800000000    0.3745318352059925 C
   0.2969417400000000    0.1354860800000000    0.3745318352059925 C
   0.3097556800000000    0.1488125700000000    0.3745318352059925 C
   0.3225696199999999    0.1621390700000000    0.3745318352059925 C
   0.3353835600000000    0.1754655700000000    0.3745318352059925 C
   0.3481975100000000    0.1887920700000000    0.3745318352059925 C
   0.3610114499999999    0.2021185700000000    0.3745318352059925 C
   0.3738253899999999    0.2154450700000000    0.3745318352059925 C
   0.3866393300000000    0.2287715700000000    0.3745318352059925 C
   0.3994532700000000    0.2420980700000000    0.3745318352059925 C
   0.4122672099999999    0.2554245700000000    0.3745318352059925 C
   0.4250811500000000    0.2687510700000000    0.3745318352059925 C
   0.4378951000000000    0.2820775700000000    0.3745318352059925 C
   0.4507090400000000    0.2954040700000000    0.3745318352059925 C
   0.4635229799999999    0.3087305700000000    0.3745318352059925 C
   0.4763369199999999    0.3220570600000000    0.3745318352059925 C
   0.4891508600000000    0.3353835600000000    0.3745318352059925 C
   0.5019647999999999    0.3487100600000000    0.3745318352059925 C
   0.5147787500000000    0.3620365600000000    0.3745318352059925 C
   0.5275926899999999    0.3753630600000000    0.3745318352059925 C
   0.5404066300000001    0.3886895599999999    0.3745318352059925 C
   0.5532205700000000    0.4020160600000000    0.3745318352059925 C
   0.5660345100000000    0.4153425600000000    0.3745318352059925 C
   0.5788484500000000    0.4286690600000000    0.3745318352059925 C
   0.5916623999999998    0.4419955600000000    0.3745318352059925 C
   0.6044763399999997    0.4553220600000000    0.3745318352059925 C
   0.6172902799999997    0.4686485600000000    0.3745318352059925 C
   0.6301042199999999    0.4819750600000001    0.3745318352059925 C
   0.6429181599999999    0.4953015500000000    0.3745318352059925 C
   0.6557321000000000    0.5086280500000000    0.3745318352059925 C
   0.6685460400000000    0.5219545500000000    0.3745318352059925 C
   0.6813599899999997    0.5352810500000000    0.3745318352059925 C
   0.6941739300000001    0.5486075500000001    0.3745318352059925 C
   0.7069878700000001    0.5619340500000000    0.3745318352059925 C
   0.7198018100000000    0.5752605500000000    0.3745318352059925 C
   0.7326157499999999    0.5885870500000000    0.3745318352059925 C
   0.7454296899999998    0.6019135500000000    0.3745318352059925 C
   0.7582436400000001    0.6152400500000000    0.3745318352059925 C
   0.7710575799999999    0.6285665499999999    0.3745318352059925 C
   0.7838715199999998    0.6418930500000000    0.3745318352059925 C
   0.7966854600000000    0.6552195500000000    0.3745318352059925 C
   0.8094994000000000    0.6685460400000000    0.3745318352059925 C
   0.8223133400000001    0.6818725399999999    0.3745318352059925 C
   0.8351272900000000    0.6951990399999999    0.3745318352059925 C
   0.8479412299999999    0.7085255399999999    0.3745318352059925 C
   0.8607551700000000    0.7218520399999999    0.3745318352059925 C
   0.8735691099999999    0.7351785399999999    0.3745318352059925 C
   0.8863830500000001    0.7485050400000000    0.3745318352059925 C
   0.8991969900000001    0.7618315399999999    0.3745318352059925 C
   0.9120109300000001    0.7751580400000000    0.3745318352059925 C
   0.9248248799999998    0.7884845399999999    0.3745318352059925 C
   0.9376388200000001    0.8018110400000000    0.3745318352059925 C
   0.9504527600000001    0.8151375399999999    0.3745318352059925 C
   0.9632666999999997    0.8284640400000000    0.3745318352059925 C
   0.9760806399999998    0.8417905300000001    0.3745318352059925 C
   0.9888945799999999    0.8551170300000001    0.3745318352059925 C
   0.0017085300000000    0.8684435300000000    0.3745318352059925 C
   0.2077567100000000    0.0027336400000000    0.3745318352059925 C
   0.2205706500000000    0.0160601400000000    0.3745318352059925 C
   0.2333845899999999    0.0293866400000000    0.3745318352059925 C
   0.2461985300000000    0.0427131400000000    0.3745318352059925 C
   0.2590124699999999    0.0560396400000000    0.3745318352059925 C
   0.2718264100000000    0.0693661400000000    0.3745318352059925 C
   0.2846403600000000    0.0826926400000000    0.3745318352059925 C
   0.2974543000000000    0.0960191400000000    0.3745318352059925 C
   0.3102682399999999    0.1093456300000000    0.3745318352059925 C
   0.3230821800000001    0.1226721300000000    0.3745318352059925 C
   0.3358961200000001    0.1359986300000000    0.3745318352059925 C
   0.3487100600000000    0.1493251300000000    0.3745318352059925 C
   0.3615240000000000    0.1626516300000000    0.3745318352059925 C
   0.3743379500000000    0.1759781300000000    0.3745318352059925 C
   0.3871518899999999    0.1893046300000000    0.3745318352059925 C
   0.3999658300000000    0.2026311300000000    0.3745318352059925 C
   0.4127797700000000    0.2159576300000000    0.3745318352059925 C
   0.4255937100000000    0.2292841300000000    0.3745318352059925 C
   0.4384076499999999    0.2426106300000000    0.3745318352059925 C
   0.4512215999999999    0.2559371300000000    0.3745318352059925 C
   0.4640355400000001    0.2692636300000000    0.3745318352059925 C
   0.4768494800000001    0.2825901200000000    0.3745318352059925 C
   0.4896634199999998    0.2959166200000000    0.3745318352059925 C
   0.5024773600000000    0.3092431200000000    0.3745318352059925 C
   0.5152912999999999    0.3225696200000000    0.3745318352059925 C
   0.5281052500000000    0.3358961200000000    0.3745318352059925 C
   0.5409191899999999    0.3492226200000000    0.3745318352059925 C
   0.5537331300000000    0.3625491200000001    0.3745318352059925 C
   0.5665470699999999    0.3758756200000001    0.3745318352059925 C
   0.5793610100000000    0.3892021199999999    0.3745318352059925 C
   0.5921749500000000    0.4025286199999999    0.3745318352059925 C
   0.6049888899999999    0.4158551200000000    0.3745318352059925 C
   0.6178028399999999    0.4291816200000000    0.3745318352059925 C
   0.6306167800000000    0.4425081200000000    0.3745318352059925 C
   0.6434307199999999    0.4558346099999999    0.3745318352059925 C
   0.6562446600000000    0.4691611099999999    0.3745318352059925 C
   0.6690585999999998    0.4824876100000000    0.3745318352059925 C
   0.6818725400000000    0.4958141100000000    0.3745318352059925 C
   0.6946864899999999    0.5091406100000000    0.3745318352059925 C
   0.7075004300000000    0.5224671100000000    0.3745318352059925 C
   0.7203143699999999    0.5357936100000000    0.3745318352059925 C
   0.7331283100000001    0.5491201100000001    0.3745318352059925 C
   0.7459422500000000    0.5624466100000000    0.3745318352059925 C
   0.7587561899999997    0.5757731100000000    0.3745318352059925 C
   0.7715701299999999    0.5890996100000000    0.3745318352059925 C
   0.7843840799999999    0.6024261100000000    0.3745318352059925 C
   0.7971980200000001    0.6157526100000000    0.3745318352059925 C
   0.8100119599999999    0.6290791000000000    0.3745318352059925 C
   0.8228259000000000    0.6424056000000001    0.3745318352059925 C
   0.8356398400000001    0.6557321000000000    0.3745318352059925 C
   0.8484537800000002    0.6690585999999998    0.3745318352059925 C
   0.8612677300000002    0.6823850999999999    0.3745318352059925 C
   0.8740816699999999    0.6957115999999999    0.3745318352059925 C
   0.8868956099999996    0.7090380999999999    0.3745318352059925 C
   0.8997095499999997    0.7223645999999999    0.3745318352059925 C
   0.9125234900000001    0.7356910999999999    0.3745318352059925 C
   0.9253374299999998    0.7490176000000000    0.3745318352059925 C
   0.9381513800000002    0.7623440999999999    0.3745318352059925 C
   0.9509653200000000    0.7756705999999999    0.3745318352059925 C
   0.9637792599999998    0.7889970999999999    0.3745318352059925 C
   0.9765931999999999    0.8023235900000000    0.3745318352059925 C
   0.9894071399999997    0.8156500900000001    0.3745318352059925 C
   0.0022210800000000    0.8289765900000000    0.3745318352059925 C
   0.2467110900000000    0.0032462000000000    0.3745318352059925 C
   0.2595250300000000    0.0165727000000000    0.3745318352059925 C
   0.2723389700000000    0.0298992000000000    0.3745318352059925 C
   0.2851529099999999    0.0432257000000000    0.3745318352059925 C
   0.2979668500000000    0.0565522000000000    0.3745318352059925 C
   0.3107808000000000    0.0698786900000000    0.3745318352059925 C
   0.3235947399999999    0.0832051900000000    0.3745318352059925 C
   0.3364086800000000    0.0965316900000000    0.3745318352059925 C
   0.3492226199999999    0.1098581900000000    0.3745318352059925 C
   0.3620365599999999    0.1231846900000000    0.3745318352059925 C
   0.3748505000000000    0.1365111900000000    0.3745318352059925 C
   0.3876644500000000    0.1498376900000000    0.3745318352059925 C
   0.4004783900000000    0.1631641900000000    0.3745318352059925 C
   0.4132923300000000    0.1764906900000000    0.3745318352059925 C
   0.4261062700000000    0.1898171900000000    0.3745318352059925 C
   0.4389202100000000    0.2031436900000000    0.3745318352059925 C
   0.4517341500000000    0.2164701900000000    0.3745318352059925 C
   0.4645480900000000    0.2297966900000000    0.3745318352059925 C
   0.4773620400000000    0.2431231800000000    0.3745318352059925 C
   0.4901759799999998    0.2564496800000000    0.3745318352059925 C
   0.5029899200000000    0.2697761800000000    0.3745318352059925 C
   0.5158038599999998    0.2831026800000000    0.3745318352059925 C
   0.5286178000000000    0.2964291800000000    0.3745318352059925 C
   0.5414317400000001    0.3097556800000000    0.3745318352059925 C
   0.5542456900000000    0.3230821800000001    0.3745318352059925 C
   0.5670596299999998    0.3364086800000000    0.3745318352059925 C
   0.5798735699999999    0.3497351800000000    0.3745318352059925 C
   0.5926875099999999    0.3630616800000001    0.3745318352059925 C
   0.6055014500000000    0.3763881800000001    0.3745318352059925 C
   0.6183153900000000    0.3897146799999999    0.3745318352059925 C
   0.6311293400000000    0.4030411799999999    0.3745318352059925 C
   0.6439432799999999    0.4163676700000000    0.3745318352059925 C
   0.6567572200000000    0.4296941700000000    0.3745318352059925 C
   0.6695711600000001    0.4430206700000000    0.3745318352059925 C
   0.6823851000000000    0.4563471700000000    0.3745318352059925 C
   0.6951990399999999    0.4696736699999999    0.3745318352059925 C
   0.7080129799999999    0.4830001700000000    0.3745318352059925 C
   0.7208269299999999    0.4963266700000000    0.3745318352059925 C
   0.7336408700000000    0.5096531700000000    0.3745318352059925 C
   0.7464548100000000    0.5229796700000000    0.3745318352059925 C
   0.7592687500000002    0.5363061700000000    0.3745318352059925 C
   0.7720826900000001    0.5496326700000000    0.3745318352059925 C
   0.7848966299999998    0.5629591700000000    0.3745318352059925 C
   0.7977105799999998    0.5762856700000000    0.3745318352059925 C
   0.8105245200000000    0.5896121600000001    0.3745318352059925 C
   0.8233384600000000    0.6029386600000000    0.3745318352059925 C
   0.8361524000000001    0.6162651600000000    0.3745318352059925 C
   0.8489663400000000    0.6295916600000000    0.3745318352059925 C
   0.8617802799999997    0.6429181600000000    0.3745318352059925 C
   0.8745942300000000    0.6562446600000000    0.3745318352059925 C
   0.8874081699999999    0.6695711600000001    0.3745318352059925 C
   0.9002221099999997    0.6828976599999999    0.3745318352059925 C
   0.9130360500000001    0.6962241599999999    0.3745318352059925 C
   0.9258499900000002    0.7095506599999999    0.3745318352059925 C
   0.9386639299999999    0.7228771600000000    0.3745318352059925 C
   0.9514778699999996    0.7362036599999999    0.3745318352059925 C
   0.9642918199999999    0.7495301599999998    0.3745318352059925 C
   0.9771057600000000    0.7628566500000000    0.3745318352059925 C
   0.9899197000000000    0.7761831500000000    0.3745318352059925 C
   0.0027336399999999    0.7895096500000001    0.3745318352059925 C
   0.2856654700000000    0.0037587600000000    0.3745318352059925 C
   0.2984794100000000    0.0170852600000000    0.3745318352059925 C
   0.3112933500000000    0.0304117500000000    0.3745318352059925 C
   0.3241073000000000    0.0437382500000000    0.3745318352059925 C
   0.3369212400000000    0.0570647500000000    0.3745318352059925 C
   0.3497351800000000    0.0703912500000000    0.3745318352059925 C
   0.3625491199999999    0.0837177500000000    0.3745318352059925 C
   0.3753630600000000    0.0970442500000000    0.3745318352059925 C
   0.3881770000000000    0.1103707500000000    0.3745318352059925 C
   0.4009909400000001    0.1236972500000000    0.3745318352059925 C
   0.4138048900000000    0.1370237500000000    0.3745318352059925 C
   0.4266188300000000    0.1503502500000000    0.3745318352059925 C
   0.4394327700000000    0.1636767500000000    0.3745318352059925 C
   0.4522467099999999    0.1770032500000000    0.3745318352059925 C
   0.4650606500000000    0.1903297500000000    0.3745318352059925 C
   0.4778745900000000    0.2036562400000000    0.3745318352059925 C
   0.4906885400000000    0.2169827400000000    0.3745318352059925 C
   0.5035024800000000    0.2303092400000000    0.3745318352059925 C
   0.5163164200000000    0.2436357400000000    0.3745318352059925 C
   0.5291303600000000    0.2569622400000000    0.3745318352059925 C
   0.5419443000000002    0.2702887400000000    0.3745318352059925 C
   0.5547582400000000    0.2836152400000000    0.3745318352059925 C
   0.5675721899999999    0.2969417400000000    0.3745318352059925 C
   0.5803861299999997    0.3102682400000000    0.3745318352059925 C
   0.5932000699999999    0.3235947400000000    0.3745318352059925 C
   0.6060140099999999    0.3369212400000000    0.3745318352059925 C
   0.6188279500000001    0.3502477400000000    0.3745318352059925 C
   0.6316418900000000    0.3635742400000000    0.3745318352059925 C
   0.6444558299999998    0.3769007300000000    0.3745318352059925 C
   0.6572697799999998    0.3902272300000000    0.3745318352059925 C
   0.6700837199999998    0.4035537300000000    0.3745318352059925 C
   0.6828976600000001    0.4168802300000000    0.3745318352059925 C
   0.6957116000000000    0.4302067299999999    0.3745318352059925 C
   0.7085255400000001    0.4435332299999999    0.3745318352059925 C
   0.7213394800000000    0.4568597300000000    0.3745318352059925 C
   0.7341534300000000    0.4701862299999999    0.3745318352059925 C
   0.7469673700000000    0.4835127299999999    0.3745318352059925 C
   0.7597813100000002    0.4968392300000000    0.3745318352059925 C
   0.7725952499999996    0.5101657300000000    0.3745318352059925 C
   0.7854091900000000    0.5234922300000000    0.3745318352059925 C
   0.7982231299999999    0.5368187300000000    0.3745318352059925 C
   0.8110370800000000    0.5501452200000000    0.3745318352059925 C
   0.8238510200000001    0.5634717200000000    0.3745318352059925 C
   0.8366649600000000    0.5767982200000000    0.3745318352059925 C
   0.8494788999999999    0.5901247200000000    0.3745318352059925 C
   0.8622928399999997    0.6034512200000000    0.3745318352059925 C
   0.8751067800000001    0.6167777200000000    0.3745318352059925 C
   0.8879207200000002    0.6301042200000000    0.3745318352059925 C
   0.9007346699999996    0.6434307200000000    0.3745318352059925 C
   0.9135486100000000    0.6567572200000000    0.3745318352059925 C
   0.9263625499999997    0.6700837200000000    0.3745318352059925 C
   0.9391764899999999    0.6834102199999998    0.3745318352059925 C
   0.9519904300000003    0.6967367200000000    0.3745318352059925 C
   0.9648043700000000    0.7100632199999999    0.3745318352059925 C
   0.9776183200000000    0.7233897100000000    0.3745318352059925 C
   0.9904322600000000    0.7367162100000000    0.3745318352059925 C
   0.0032462000000000    0.7500427100000000    0.3745318352059925 C
   0.3246198500000000    0.0042713100000000    0.3745318352059925 C
   0.3374337900000000    0.0175978100000000    0.3745318352059925 C
   0.3502477399999999    0.0309243100000000    0.3745318352059925 C
   0.3630616800000000    0.0442508100000000    0.3745318352059925 C
   0.3758756200000000    0.0575773100000000    0.3745318352059925 C
   0.3886895600000000    0.0709038100000000    0.3745318352059925 C
   0.4015035000000000    0.0842303100000000    0.3745318352059925 C
   0.4143174399999999    0.0975568100000000    0.3745318352059925 C
   0.4271313899999999    0.1108833100000000    0.3745318352059925 C
   0.4399453300000000    0.1242098100000000    0.3745318352059925 C
   0.4527592699999999    0.1375363100000000    0.3745318352059925 C
   0.4655732100000000    0.1508628100000000    0.3745318352059925 C
   0.4783871499999999    0.1641893000000000    0.3745318352059925 C
   0.4912010900000001    0.1775158000000000    0.3745318352059925 C
   0.5040150399999999    0.1908423000000000    0.3745318352059925 C
   0.5168289799999999    0.2041688000000000    0.3745318352059925 C
   0.5296429200000001    0.2174953000000000    0.3745318352059925 C
   0.5424568600000000    0.2308218000000000    0.3745318352059925 C
   0.5552708000000000    0.2441483000000000    0.3745318352059925 C
   0.5680847400000000    0.2574748000000000    0.3745318352059925 C
   0.5808986799999999    0.2708013000000000    0.3745318352059925 C
   0.5937126300000000    0.2841278000000000    0.3745318352059925 C
   0.6065265700000000    0.2974543000000000    0.3745318352059925 C
   0.6193405099999999    0.3107808000000000    0.3745318352059925 C
   0.6321544499999999    0.3241073000000000    0.3745318352059925 C
   0.6449683899999998    0.3374337900000000    0.3745318352059925 C
   0.6577823299999997    0.3507602900000000    0.3745318352059925 C
   0.6705962800000000    0.3640867900000000    0.3745318352059925 C
   0.6834102199999998    0.3774132900000000    0.3745318352059925 C
   0.6962241599999999    0.3907397900000000    0.3745318352059925 C
   0.7090381000000000    0.4040662900000000    0.3745318352059925 C
   0.7218520399999999    0.4173927900000000    0.3745318352059925 C
   0.7346659800000002    0.4307192899999999    0.3745318352059925 C
   0.7474799200000000    0.4440457899999999    0.3745318352059925 C
   0.7602938700000000    0.4573722900000000    0.3745318352059925 C
   0.7731078099999998    0.4706987899999999    0.3745318352059925 C
   0.7859217500000000    0.4840252899999999    0.3745318352059925 C
   0.7987356900000001    0.4973517900000000    0.3745318352059925 C
   0.8115496300000000    0.5106782800000000    0.3745318352059925 C
   0.8243635699999997    0.5240047799999999    0.3745318352059925 C
   0.8371775200000000    0.5373312800000000    0.3745318352059925 C
   0.8499914599999999    0.5506577800000000    0.3745318352059925 C
   0.8628054000000001    0.5639842800000000    0.3745318352059925 C
   0.8756193399999997    0.5773107800000000    0.3745318352059925 C
   0.8884332800000001    0.5906372800000000    0.3745318352059925 C
   0.9012472199999999    0.6039637800000000    0.3745318352059925 C
   0.9140611699999998    0.6172902800000000    0.3745318352059925 C
   0.9268751099999999    0.6306167800000000    0.3745318352059925 C
   0.9396890499999998    0.6439432800000000    0.3745318352059925 C
   0.9525029899999999    0.6572697800000000    0.3745318352059925 C
   0.9653169299999999    0.6705962800000000    0.3745318352059925 C
   0.9781308699999999    0.6839227699999999    0.3745318352059925 C
   0.9909448100000002    0.6972492699999999    0.3745318352059925 C
   0.0037587600000001    0.7105757699999999    0.3745318352059925 C
   0.3635742400000000    0.0047838700000000    0.3745318352059925 C
   0.3763881800000000    0.0181103700000000    0.3745318352059925 C
   0.3892021200000000    0.0314368700000000    0.3745318352059925 C
   0.4020160600000001    0.0447633700000000    0.3745318352059925 C
   0.4148300000000000    0.0580898700000000    0.3745318352059925 C
   0.4276439400000000    0.0714163700000000    0.3745318352059925 C
   0.4404578800000000    0.0847428700000000    0.3745318352059925 C
   0.4532718300000000    0.0980693700000000    0.3745318352059925 C
   0.4660857700000001    0.1113958700000000    0.3745318352059925 C
   0.4788997099999999    0.1247223600000000    0.3745318352059925 C
   0.4917136500000001    0.1380488600000000    0.3745318352059925 C
   0.5045275899999999    0.1513753600000000    0.3745318352059925 C
   0.5173415299999999    0.1647018600000000    0.3745318352059925 C
   0.5301554800000000    0.1780283600000000    0.3745318352059925 C
   0.5429694199999999    0.1913548600000000    0.3745318352059925 C
   0.5557833600000001    0.2046813600000000    0.3745318352059925 C
   0.5685973000000000    0.2180078600000000    0.3745318352059925 C
   0.5814112400000000    0.2313343600000000    0.3745318352059925 C
   0.5942251799999999    0.2446608600000000    0.3745318352059925 C
   0.6070391299999999    0.2579873600000000    0.3745318352059925 C
   0.6198530700000000    0.2713138600000000    0.3745318352059925 C
   0.6326670100000001    0.2846403600000000    0.3745318352059925 C
   0.6454809499999999    0.2979668500000000    0.3745318352059925 C
   0.6582948900000000    0.3112933500000000    0.3745318352059925 C
   0.6711088299999999    0.3246198500000000    0.3745318352059925 C
   0.6839227700000000    0.3379463500000000    0.3745318352059925 C
   0.6967367200000000    0.3512728500000000    0.3745318352059925 C
   0.7095506599999999    0.3645993500000000    0.3745318352059925 C
   0.7223645999999998    0.3779258500000000    0.3745318352059925 C
   0.7351785399999998    0.3912523500000000    0.3745318352059925 C
   0.7479924799999998    0.4045788500000000    0.3745318352059925 C
   0.7608064199999999    0.4179053500000001    0.3745318352059925 C
   0.7736203699999999    0.4312318500000001    0.3745318352059925 C
   0.7864343100000000    0.4445583499999999    0.3745318352059925 C
   0.7992482500000001    0.4578848500000000    0.3745318352059925 C
   0.8120621900000000    0.4712113400000000    0.3745318352059925 C
   0.8248761300000002    0.4845378400000000    0.3745318352059925 C
   0.8376900700000001    0.4978643400000000    0.3745318352059925 C
   0.8505040199999999    0.5111908400000000    0.3745318352059925 C
   0.8633179600000001    0.5245173400000001    0.3745318352059925 C
   0.8761319000000000    0.5378438400000000    0.3745318352059925 C
   0.8889458400000001    0.5511703400000000    0.3745318352059925 C
   0.9017597800000002    0.5644968400000000    0.3745318352059925 C
   0.9145737200000000    0.5778233400000000    0.3745318352059925 C
   0.9273876599999997    0.5911498400000000    0.3745318352059925 C
   0.9402016100000000    0.6044763399999999    0.3745318352059925 C
   0.9530155499999999    0.6178028400000000    0.3745318352059925 C
   0.9658294900000001    0.6311293400000000    0.3745318352059925 C
   0.9786434299999999    0.6444558300000000    0.3745318352059925 C
   0.9914573699999998    0.6577823300000000    0.3745318352059925 C
   0.0042713100000000    0.6711088300000000    0.3745318352059925 C
   0.4025286199999999    0.0052964300000000    0.3745318352059925 C
   0.4153425600000000    0.0186229300000000    0.3745318352059925 C
   0.4281565000000000    0.0319494300000000    0.3745318352059925 C
   0.4409704400000001    0.0452759300000000    0.3745318352059925 C
   0.4537843800000000    0.0586024300000000    0.3745318352059925 C
   0.4665983300000000    0.0719289300000000    0.3745318352059925 C
   0.4794122700000000    0.0852554200000000    0.3745318352059925 C
   0.4922262100000001    0.0985819200000000    0.3745318352059925 C
   0.5050401500000000    0.1119084200000000    0.3745318352059925 C
   0.5178540900000000    0.1252349200000000    0.3745318352059925 C
   0.5306680300000000    0.1385614200000000    0.3745318352059925 C
   0.5434819799999999    0.1518879200000000    0.3745318352059925 C
   0.5562959200000001    0.1652144200000000    0.3745318352059925 C
   0.5691098600000000    0.1785409200000000    0.3745318352059925 C
   0.5819237999999999    0.1918674200000000    0.3745318352059925 C
   0.5947377399999998    0.2051939200000000    0.3745318352059925 C
   0.6075516800000001    0.2185204200000000    0.3745318352059925 C
   0.6203656200000000    0.2318469200000000    0.3745318352059925 C
   0.6331795699999999    0.2451734200000000    0.3745318352059925 C
   0.6459935099999999    0.2584999100000000    0.3745318352059925 C
   0.6588074499999999    0.2718264100000000    0.3745318352059925 C
   0.6716213899999999    0.2851529100000000    0.3745318352059925 C
   0.6844353300000000    0.2984794100000000    0.3745318352059925 C
   0.6972492699999999    0.3118059100000000    0.3745318352059925 C
   0.7100632200000000    0.3251324100000000    0.3745318352059925 C
   0.7228771600000000    0.3384589100000000    0.3745318352059925 C
   0.7356910999999999    0.3517854100000000    0.3745318352059925 C
   0.7485050399999998    0.3651119100000000    0.3745318352059925 C
   0.7613189799999998    0.3784384100000000    0.3745318352059925 C
   0.7741329199999999    0.3917649100000000    0.3745318352059925 C
   0.7869468600000000    0.4050914100000000    0.3745318352059925 C
   0.7997608100000000    0.4184179100000001    0.3745318352059925 C
   0.8125747499999998    0.4317444000000000    0.3745318352059925 C
   0.8253886900000001    0.4450709000000000    0.3745318352059925 C
   0.8382026299999998    0.4583974000000000    0.3745318352059925 C
   0.8510165699999998    0.4717239000000000    0.3745318352059925 C
   0.8638305099999999    0.4850504000000000    0.3745318352059925 C
   0.8766444599999997    0.4983769000000000    0.3745318352059925 C
   0.8894583999999996    0.5117034000000000    0.3745318352059925 C
   0.9022723400000000    0.5250299000000000    0.3745318352059925 C
   0.9150862800000000    0.5383564000000000    0.3745318352059925 C
   0.9279002199999999    0.5516829000000000    0.3745318352059925 C
   0.9407141600000001    0.5650094000000000    0.3745318352059925 C
   0.9535281099999999    0.5783359000000000    0.3745318352059925 C
   0.9663420499999998    0.5916624000000000    0.3745318352059925 C
   0.9791559899999998    0.6049888900000000    0.3745318352059925 C
   0.9919699299999999    0.6183153900000000    0.3745318352059925 C
   0.0047838700000001    0.6316418899999999    0.3745318352059925 C
   0.4414830000000000    0.0058089900000000    0.3745318352059925 C
   0.4542969399999999    0.0191354900000000    0.3745318352059925 C
   0.4671108800000000    0.0324619900000000    0.3745318352059925 C
   0.4799248200000000    0.0457884800000000    0.3745318352059925 C
   0.4927387699999999    0.0591149800000000    0.3745318352059925 C
   0.5055527100000000    0.0724414800000000    0.3745318352059925 C
   0.5183666500000000    0.0857679800000000    0.3745318352059925 C
   0.5311805900000000    0.0990944800000000    0.3745318352059925 C
   0.5439945300000000    0.1124209800000000    0.3745318352059925 C
   0.5568084699999999    0.1257474800000000    0.3745318352059925 C
   0.5696224200000000    0.1390739800000000    0.3745318352059925 C
   0.5824363599999999    0.1524004800000000    0.3745318352059925 C
   0.5952503000000000    0.1657269800000000    0.3745318352059925 C
   0.6080642399999998    0.1790534800000000    0.3745318352059925 C
   0.6208781799999998    0.1923799800000000    0.3745318352059925 C
   0.6336921200000000    0.2057064800000000    0.3745318352059925 C
   0.6465060700000002    0.2190329700000000    0.3745318352059925 C
   0.6593200100000000    0.2323594700000000    0.3745318352059925 C
   0.6721339499999999    0.2456859700000000    0.3745318352059925 C
   0.6849478900000000    0.2590124700000000    0.3745318352059925 C
   0.6977618300000000    0.2723389700000000    0.3745318352059925 C
   0.7105757699999998    0.2856654700000000    0.3745318352059925 C
   0.7233897099999997    0.2989919700000000    0.3745318352059925 C
   0.7362036600000000    0.3123184700000000    0.3745318352059925 C
   0.7490176000000000    0.3256449700000000    0.3745318352059925 C
   0.7618315399999999    0.3389714700000000    0.3745318352059925 C
   0.7746454800000000    0.3522979700000000    0.3745318352059925 C
   0.7874594200000001    0.3656244700000000    0.3745318352059925 C
   0.8002733599999999    0.3789509700000000    0.3745318352059925 C
   0.8130873099999997    0.3922774600000000    0.3745318352059925 C
   0.8259012499999998    0.4056039600000000    0.3745318352059925 C
   0.8387151900000002    0.4189304600000000    0.3745318352059925 C
   0.8515291299999999    0.4322569600000000    0.3745318352059925 C
   0.8643430700000001    0.4455834600000000    0.3745318352059925 C
   0.8771570100000000    0.4589099600000000    0.3745318352059925 C
   0.8899709599999999    0.4722364600000000    0.3745318352059925 C
   0.9027849000000000    0.4855629599999999    0.3745318352059925 C
   0.9155988399999997    0.4988894600000000    0.3745318352059925 C
   0.9284127800000000    0.5122159600000000    0.3745318352059925 C
   0.9412267200000000    0.5255424600000000    0.3745318352059925 C
   0.9540406600000000    0.5388689600000000    0.3745318352059925 C
   0.9668545999999999    0.5521954600000000    0.3745318352059925 C
   0.9796685499999999    0.5655219500000001    0.3745318352059925 C
   0.9924824899999999    0.5788484500000000    0.3745318352059925 C
   0.0052964299999999    0.5921749500000000    0.3745318352059925 C
   0.4804373800000001    0.0063215400000000    0.3745318352059925 C
   0.4932513200000001    0.0196480400000000    0.3745318352059925 C
   0.5060652699999998    0.0329745400000000    0.3745318352059925 C
   0.5188792100000000    0.0463010400000000    0.3745318352059925 C
   0.5316931499999999    0.0596275400000000    0.3745318352059925 C
   0.5445070900000000    0.0729540400000000    0.3745318352059925 C
   0.5573210300000001    0.0862805400000000    0.3745318352059925 C
   0.5701349699999999    0.0996070400000000    0.3745318352059925 C
   0.5829489199999999    0.1129335400000000    0.3745318352059925 C
   0.5957628599999999    0.1262600400000000    0.3745318352059925 C
   0.6085767999999999    0.1395865400000000    0.3745318352059925 C
   0.6213907400000001    0.1529130400000000    0.3745318352059925 C
   0.6342046799999997    0.1662395400000000    0.3745318352059925 C
   0.6470186200000001    0.1795660300000000    0.3745318352059925 C
   0.6598325600000001    0.1928925300000000    0.3745318352059925 C
   0.6726465100000001    0.2062190300000000    0.3745318352059925 C
   0.6854604500000000    0.2195455300000000    0.3745318352059925 C
   0.6982743900000001    0.2328720300000000    0.3745318352059925 C
   0.7110883299999999    0.2461985300000000    0.3745318352059925 C
   0.7239022700000000    0.2595250300000000    0.3745318352059925 C
   0.7367162099999998    0.2728515300000000    0.3745318352059925 C
   0.7495301600000001    0.2861780300000000    0.3745318352059925 C
   0.7623441000000001    0.2995045300000000    0.3745318352059925 C
   0.7751580399999999    0.3128310300000000    0.3745318352059925 C
   0.7879719799999999    0.3261575300000000    0.3745318352059925 C
   0.8007859199999999    0.3394840300000000    0.3745318352059925 C
   0.8135998600000001    0.3528105200000000    0.3745318352059925 C
   0.8264138000000001    0.3661370200000000    0.3745318352059925 C
   0.8392277499999999    0.3794635200000001    0.3745318352059925 C
   0.8520416899999999    0.3927900200000000    0.3745318352059925 C
   0.8648556300000000    0.4061165200000000    0.3745318352059925 C
   0.8776695699999999    0.4194430200000000    0.3745318352059925 C
   0.8904835100000000    0.4327695200000000    0.3745318352059925 C
   0.9032974499999998    0.4460960200000000    0.3745318352059925 C
   0.9161114000000001    0.4594225200000000    0.3745318352059925 C
   0.9289253400000000    0.4727490200000000    0.3745318352059925 C
   0.9417392799999997    0.4860755199999999    0.3745318352059925 C
   0.9545532200000001    0.4994020199999999    0.3745318352059925 C
   0.9673671600000000    0.5127285200000000    0.3745318352059925 C
   0.9801810999999999    0.5260550100000000    0.3745318352059925 C
   0.9929950500000001    0.5393815100000000    0.3745318352059925 C
   0.0058089900000000    0.5527080100000000    0.3745318352059925 C
   0.5193917600000000    0.0068341000000000    0.3745318352059925 C
   0.5322057099999999    0.0201606000000000    0.3745318352059925 C
   0.5450196499999999    0.0334871000000000    0.3745318352059925 C
   0.5578335900000001    0.0468136000000000    0.3745318352059925 C
   0.5706475300000000    0.0601401000000000    0.3745318352059925 C
   0.5834614700000001    0.0734666000000000    0.3745318352059925 C
   0.5962754100000001    0.0867931000000000    0.3745318352059925 C
   0.6090893600000000    0.1001196000000000    0.3745318352059925 C
   0.6219032999999999    0.1134461000000000    0.3745318352059925 C
   0.6347172400000000    0.1267726000000000    0.3745318352059925 C
   0.6475311799999998    0.1400990900000000    0.3745318352059925 C
   0.6603451199999999    0.1534255900000000    0.3745318352059925 C
   0.6731590600000000    0.1667520900000000    0.3745318352059925 C
   0.6859730100000000    0.1800785900000000    0.3745318352059925 C
   0.6987869500000001    0.1934050900000000    0.3745318352059925 C
   0.7116008899999999    0.2067315900000000    0.3745318352059925 C
   0.7244148300000002    0.2200580900000000    0.3745318352059925 C
   0.7372287700000000    0.2333845900000000    0.3745318352059925 C
   0.7500427100000000    0.2467110900000000    0.3745318352059925 C
   0.7628566499999998    0.2600375900000000    0.3745318352059925 C
   0.7756706000000001    0.2733640900000000    0.3745318352059925 C
   0.7884845399999999    0.2866905900000000    0.3745318352059925 C
   0.8012984800000000    0.3000170900000000    0.3745318352059925 C
   0.8141124199999998    0.3133435800000000    0.3745318352059925 C
   0.8269263599999999    0.3266700800000000    0.3745318352059925 C
   0.8397403000000000    0.3399965800000000    0.3745318352059925 C
   0.8525542499999998    0.3533230800000000    0.3745318352059925 C
   0.8653681900000000    0.3666495800000000    0.3745318352059925 C
   0.8781821300000001    0.3799760800000000    0.3745318352059925 C
   0.8909960700000000    0.3933025800000001    0.3745318352059925 C
   0.9038100099999999    0.4066290800000000    0.3745318352059925 C
   0.9166239499999999    0.4199555800000000    0.3745318352059925 C
   0.9294378999999999    0.4332820800000000    0.3745318352059925 C
   0.9422518400000000    0.4466085800000000    0.3745318352059925 C
   0.9550657800000001    0.4599350800000001    0.3745318352059925 C
   0.9678797200000000    0.4732615800000001    0.3745318352059925 C
   0.9806936599999999    0.4865880700000000    0.3745318352059925 C
   0.9935076000000000    0.4999145700000000    0.3745318352059925 C
   0.0063215400000000    0.5132410700000000    0.3745318352059925 C
   0.5583461499999998    0.0073466600000000    0.3745318352059925 C
   0.5711600899999999    0.0206731600000000    0.3745318352059925 C
   0.5839740299999999    0.0339996600000000    0.3745318352059925 C
   0.5967879699999998    0.0473261600000000    0.3745318352059925 C
   0.6096019100000000    0.0606526600000000    0.3745318352059925 C
   0.6224158600000002    0.0739791600000000    0.3745318352059925 C
   0.6352298000000000    0.0873056600000000    0.3745318352059925 C
   0.6480437399999998    0.1006321500000000    0.3745318352059925 C
   0.6608576800000000    0.1139586500000000    0.3745318352059925 C
   0.6736716199999999    0.1272851500000000    0.3745318352059925 C
   0.6864855599999999    0.1406116500000000    0.3745318352059925 C
   0.6992995000000000    0.1539381500000000    0.3745318352059925 C
   0.7121134500000001    0.1672646500000000    0.3745318352059925 C
   0.7249273899999998    0.1805911500000000    0.3745318352059925 C
   0.7377413299999999    0.1939176500000000    0.3745318352059925 C
   0.7505552700000000    0.2072441500000000    0.3745318352059925 C
   0.7633692100000000    0.2205706500000000    0.3745318352059925 C
   0.7761831500000000    0.2338971500000000    0.3745318352059925 C
   0.7889970999999999    0.2472236500000000    0.3745318352059925 C
   0.8018110399999999    0.2605501500000000    0.3745318352059925 C
   0.8146249800000001    0.2738766400000000    0.3745318352059925 C
   0.8274389200000000    0.2872031400000000    0.3745318352059925 C
   0.8402528599999999    0.3005296400000000    0.3745318352059925 C
   0.8530668000000001    0.3138561400000000    0.3745318352059925 C
   0.8658807399999998    0.3271826400000000    0.3745318352059925 C
   0.8786946900000001    0.3405091400000000    0.3745318352059925 C
   0.8915086300000000    0.3538356400000000    0.3745318352059925 C
   0.9043225700000002    0.3671621400000000    0.3745318352059925 C
   0.9171365099999998    0.3804886400000000    0.3745318352059925 C
   0.9299504500000000    0.3938151400000000    0.3745318352059925 C
   0.9427643899999999    0.4071416400000000    0.3745318352059925 C
   0.9555783400000001    0.4204681400000000    0.3745318352059925 C
   0.9683922800000000    0.4337946400000000    0.3745318352059925 C
   0.9812062199999997    0.4471211300000000    0.3745318352059925 C
   0.9940201600000000    0.4604476300000001    0.3745318352059925 C
   0.0068341000000000    0.4737741300000001    0.3745318352059925 C
   0.5973005299999999    0.0078592200000000    0.3745318352059925 C
   0.6101144699999997    0.0211857200000000    0.3745318352059925 C
   0.6229284099999999    0.0345122200000000    0.3745318352059925 C
   0.6357423500000000    0.0478387200000000    0.3745318352059925 C
   0.6485563000000000    0.0611652100000000    0.3745318352059925 C
   0.6613702400000000    0.0744917100000000    0.3745318352059925 C
   0.6741841799999998    0.0878182100000000    0.3745318352059925 C
   0.6869981200000000    0.1011447100000000    0.3745318352059925 C
   0.6998120599999997    0.1144712100000000    0.3745318352059925 C
   0.7126259999999999    0.1277977100000000    0.3745318352059925 C
   0.7254399499999998    0.1411242100000000    0.3745318352059925 C
   0.7382538900000000    0.1544507100000000    0.3745318352059925 C
   0.7510678299999998    0.1677772100000000    0.3745318352059925 C
   0.7638817700000000    0.1811037100000000    0.3745318352059925 C
   0.7766957099999998    0.1944302100000000    0.3745318352059925 C
   0.7895096500000000    0.2077567100000000    0.3745318352059925 C
   0.8023235900000000    0.2210832100000000    0.3745318352059925 C
   0.8151375400000000    0.2344097000000000    0.3745318352059925 C
   0.8279514800000000    0.2477362000000000    0.3745318352059925 C
   0.8407654200000001    0.2610627000000000    0.3745318352059925 C
   0.8535793599999998    0.2743892000000000    0.3745318352059925 C
   0.8663932999999999    0.2877157000000000    0.3745318352059925 C
   0.8792072399999999    0.3010422000000000    0.3745318352059925 C
   0.8920211900000000    0.3143687000000000    0.3745318352059925 C
   0.9048351299999997    0.3276952000000000    0.3745318352059925 C
   0.9176490700000001    0.3410216999999999    0.3745318352059925 C
   0.9304630100000000    0.3543481999999999    0.3745318352059925 C
   0.9432769500000001    0.3676747000000000    0.3745318352059925 C
   0.9560908900000000    0.3810012000000000    0.3745318352059925 C
   0.9689048399999999    0.3943277000000000    0.3745318352059925 C
   0.9817187799999999    0.4076541900000000    0.3745318352059925 C
   0.9945327200000000    0.4209806900000000    0.3745318352059925 C
   0.0073466600000000    0.4343071900000000    0.3745318352059925 C
   0.6362549099999998    0.0083717800000000    0.3745318352059925 C
   0.6490688499999999    0.0216982700000000    0.3745318352059925 C
   0.6618828000000000    0.0350247700000000    0.3745318352059925 C
   0.6746967400000000    0.0483512700000000    0.3745318352059925 C
   0.6875106799999999    0.0616777700000000    0.3745318352059925 C
   0.7003246200000002    0.0750042700000000    0.3745318352059925 C
   0.7131385600000000    0.0883307700000000    0.3745318352059925 C
   0.7259525000000001    0.1016572700000000    0.3745318352059925 C
   0.7387664399999999    0.1149837700000000    0.3745318352059925 C
   0.7515803899999999    0.1283102700000000    0.3745318352059925 C
   0.7643943300000000    0.1416367700000000    0.3745318352059925 C
   0.7772082700000000    0.1549632700000000    0.3745318352059925 C
   0.7900222099999998    0.1682897700000000    0.3745318352059925 C
   0.8028361500000001    0.1816162700000000    0.3745318352059925 C
   0.8156500900000000    0.1949427600000000    0.3745318352059925 C
   0.8284640400000000    0.2082692600000000    0.3745318352059925 C
   0.8412779799999999    0.2215957600000000    0.3745318352059925 C
   0.8540919200000000    0.2349222600000000    0.3745318352059925 C
   0.8669058600000000    0.2482487600000000    0.3745318352059925 C
   0.8797198000000001    0.2615752600000000    0.3745318352059925 C
   0.8925337399999997    0.2749017600000000    0.3745318352059925 C
   0.9053476799999999    0.2882282600000000    0.3745318352059925 C
   0.9181616299999998    0.3015547600000000    0.3745318352059925 C
   0.9309755699999998    0.3148812600000000    0.3745318352059925 C
   0.9437895099999999    0.3282077600000000    0.3745318352059925 C
   0.9566034500000000    0.3415342599999999    0.3745318352059925 C
   0.9694173899999999    0.3548607599999999    0.3745318352059925 C
   0.9822313299999998    0.3681872500000000    0.3745318352059925 C
   0.9950452800000000    0.3815137499999999    0.3745318352059925 C
   0.0078592200000000    0.3948402499999999    0.3745318352059925 C
   0.6752092899999997    0.0088843300000000    0.3745318352059925 C
   0.6880232400000001    0.0222108300000000    0.3745318352059925 C
   0.7008371799999999    0.0355373300000000    0.3745318352059925 C
   0.7136511199999998    0.0488638300000000    0.3745318352059925 C
   0.7264650600000000    0.0621903300000000    0.3745318352059925 C
   0.7392790000000000    0.0755168300000000    0.3745318352059925 C
   0.7520929400000000    0.0888433300000000    0.3745318352059925 C
   0.7649068899999998    0.1021698300000000    0.3745318352059925 C
   0.7777208300000000    0.1154963300000000    0.3745318352059925 C
   0.7905347699999999    0.1288228300000000    0.3745318352059925 C
   0.8033487100000000    0.1421493300000000    0.3745318352059925 C
   0.8161626500000001    0.1554758200000000    0.3745318352059925 C
   0.8289765900000001    0.1688023200000000    0.3745318352059925 C
   0.8417905300000000    0.1821288200000000    0.3745318352059925 C
   0.8546044799999999    0.1954553200000000    0.3745318352059925 C
   0.8674184200000001    0.2087818200000000    0.3745318352059925 C
   0.8802323599999999    0.2221083200000000    0.3745318352059925 C
   0.8930463000000000    0.2354348200000000    0.3745318352059925 C
   0.9058602399999997    0.2487613200000000    0.3745318352059925 C
   0.9186741799999998    0.2620878200000000    0.3745318352059925 C
   0.9314881299999999    0.2754143200000000    0.3745318352059925 C
   0.9443020700000000    0.2887408200000000    0.3745318352059925 C
   0.9571160099999998    0.3020673200000000    0.3745318352059925 C
   0.9699299499999999    0.3153938200000000    0.3745318352059925 C
   0.9827438899999996    0.3287203100000000    0.3745318352059925 C
   0.9955578300000000    0.3420468100000000    0.3745318352059925 C
   0.0083717800000000    0.3553733100000000    0.3745318352059925 C
   0.7141636800000000    0.0093968900000000    0.3745318352059925 C
   0.7269776200000000    0.0227233900000000    0.3745318352059925 C
   0.7397915600000001    0.0360498900000000    0.3745318352059925 C
   0.7526055000000000    0.0493763900000000    0.3745318352059925 C
   0.7654194400000000    0.0627028900000000    0.3745318352059925 C
   0.7782333799999999    0.0760293900000000    0.3745318352059925 C
   0.7910473300000000    0.0893558900000000    0.3745318352059925 C
   0.8038612700000000    0.1026823900000000    0.3745318352059925 C
   0.8166752099999998    0.1160088800000000    0.3745318352059925 C
   0.8294891499999999    0.1293353800000000    0.3745318352059925 C
   0.8423030899999998    0.1426618800000000    0.3745318352059925 C
   0.8551170300000001    0.1559883800000000    0.3745318352059925 C
   0.8679309800000000    0.1693148800000000    0.3745318352059925 C
   0.8807449200000002    0.1826413800000000    0.3745318352059925 C
   0.8935588599999998    0.1959678800000000    0.3745318352059925 C
   0.9063728000000001    0.2092943800000000    0.3745318352059925 C
   0.9191867400000000    0.2226208800000000    0.3745318352059925 C
   0.9320006799999999    0.2359473800000000    0.3745318352059925 C
   0.9448146200000000    0.2492738800000000    0.3745318352059925 C
   0.9576285699999999    0.2626003800000000    0.3745318352059925 C
   0.9704425099999999    0.2759268800000000    0.3745318352059925 C
   0.9832564499999998    0.2892533700000000    0.3745318352059925 C
   0.9960703900000000    0.3025798700000000    0.3745318352059925 C
   0.0088843300000000    0.3159063700000000    0.3745318352059925 C
   0.7531180599999998    0.0099094500000000    0.3745318352059925 C
   0.7659320000000001    0.0232359500000000    0.3745318352059925 C
   0.7787459400000001    0.0365624500000000    0.3745318352059925 C
   0.7915598800000001    0.0498889500000000    0.3745318352059925 C
   0.8043738300000000    0.0632154500000000    0.3745318352059925 C
   0.8171877699999999    0.0765419400000000    0.3745318352059925 C
   0.8300017100000000    0.0898684400000000    0.3745318352059925 C
   0.8428156499999999    0.1031949400000000    0.3745318352059925 C
   0.8556295899999999    0.1165214400000000    0.3745318352059925 C
   0.8684435299999996    0.1298479400000000    0.3745318352059925 C
   0.8812574700000000    0.1431744400000000    0.3745318352059925 C
   0.8940714199999998    0.1565009400000000    0.3745318352059925 C
   0.9068853600000000    0.1698274400000000    0.3745318352059925 C
   0.9196993000000000    0.1831539400000000    0.3745318352059925 C
   0.9325132400000001    0.1964804400000000    0.3745318352059925 C
   0.9453271800000000    0.2098069400000000    0.3745318352059925 C
   0.9581411200000000    0.2231334400000000    0.3745318352059925 C
   0.9709550700000000    0.2364599400000000    0.3745318352059925 C
   0.9837690099999999    0.2497864300000000    0.3745318352059925 C
   0.9965829499999996    0.2631129300000000    0.3745318352059925 C
   0.0093968900000000    0.2764394300000000    0.3745318352059925 C
   0.7920724399999997    0.0104220100000000    0.3745318352059925 C
   0.8048863800000000    0.0237485100000000    0.3745318352059925 C
   0.8177003200000001    0.0370750000000000    0.3745318352059925 C
   0.8305142699999998    0.0504015000000000    0.3745318352059925 C
   0.8433282099999999    0.0637280000000000    0.3745318352059925 C
   0.8561421499999999    0.0770545000000000    0.3745318352059925 C
   0.8689560900000000    0.0903810000000000    0.3745318352059925 C
   0.8817700299999999    0.1037075000000000    0.3745318352059925 C
   0.8945839700000000    0.1170340000000000    0.3745318352059925 C
   0.9073979199999999    0.1303605000000000    0.3745318352059925 C
   0.9202118600000001    0.1436870000000000    0.3745318352059925 C
   0.9330258000000001    0.1570135000000000    0.3745318352059925 C
   0.9458397400000000    0.1703400000000000    0.3745318352059925 C
   0.9586536800000000    0.1836665000000000    0.3745318352059925 C
   0.9714676199999999    0.1969930000000000    0.3745318352059925 C
   0.9842815699999999    0.2103194900000000    0.3745318352059925 C
   0.9970955099999999    0.2236459900000000    0.3745318352059925 C
   0.0099094500000000    0.2369724900000000    0.3745318352059925 C
   0.8310268200000001    0.0109345600000000    0.3745318352059925 C
   0.8438407700000000    0.0242610600000000    0.3745318352059925 C
   0.8566547099999998    0.0375875600000000    0.3745318352059925 C
   0.8694686499999998    0.0509140600000000    0.3745318352059925 C
   0.8822825899999999    0.0642405600000000    0.3745318352059925 C
   0.8950965299999999    0.0775670600000000    0.3745318352059925 C
   0.9079104700000000    0.0908935600000000    0.3745318352059925 C
   0.9207244100000000    0.1042200600000000    0.3745318352059925 C
   0.9335383599999998    0.1175465600000000    0.3745318352059925 C
   0.9463522999999999    0.1308730600000000    0.3745318352059925 C
   0.9591662399999998    0.1441995600000000    0.3745318352059925 C
   0.9719801799999999    0.1575260600000000    0.3745318352059925 C
   0.9847941200000000    0.1708525500000000    0.3745318352059925 C
   0.9976080599999999    0.1841790500000000    0.3745318352059925 C
   0.0104220100000000    0.1975055500000000    0.3745318352059925 C
   0.8699812099999999    0.0114471200000000    0.3745318352059925 C
   0.8827951500000001    0.0247736200000000    0.3745318352059925 C
   0.8956090899999999    0.0381001200000000    0.3745318352059925 C
   0.9084230300000000    0.0514266200000000    0.3745318352059925 C
   0.9212369699999999    0.0647531200000000    0.3745318352059925 C
   0.9340509100000000    0.0780796200000000    0.3745318352059925 C
   0.9468648599999999    0.0914061200000000    0.3745318352059925 C
   0.9596788000000001    0.1047326200000000    0.3745318352059925 C
   0.9724927399999999    0.1180591100000000    0.3745318352059925 C
   0.9853066800000000    0.1313856100000000    0.3745318352059925 C
   0.9981206200000001    0.1447121100000000    0.3745318352059925 C
   0.0109345600000000    0.1580386100000000    0.3745318352059925 C
   0.9089355900000001    0.0119596800000000    0.3745318352059925 C
   0.9217495300000000    0.0252861800000000    0.3745318352059925 C
   0.9345634700000001    0.0386126800000000    0.3745318352059925 C
   0.9473774100000000    0.0519391800000000    0.3745318352059925 C
   0.9601913500000000    0.0652656800000000    0.3745318352059925 C
   0.9730052999999997    0.0785921700000000    0.3745318352059925 C
   0.9858192399999999    0.0919186700000000    0.3745318352059925 C
   0.9986331800000001    0.1052451700000000    0.3745318352059925 C
   0.0114471200000000    0.1185716700000000    0.3745318352059925 C
   0.9478899700000000    0.0124722400000000    0.3745318352059925 C
   0.9607039100000001    0.0257987400000000    0.3745318352059925 C
   0.9735178500000000    0.0391252300000000    0.3745318352059925 C
   0.9863317999999999    0.0524517300000000    0.3745318352059925 C
   0.9991457399999998    0.0657782300000000    0.3745318352059925 C
   0.0119596800000000    0.0791047300000000    0.3745318352059925 C
   0.9868443499999999    0.0129847900000000    0.3745318352059925 C
   0.9996582899999998    0.0263112900000000    0.3745318352059925 C
   0.0124722400000000    0.0396377900000000    0.3745318352059925 C
   0.0264821500000000    0.9608747699999999    0.3745318352059925 C
   0.0392960900000000    0.9742012600000000    0.3745318352059925 C
   0.0521100299999998    0.9875277600000001    0.3745318352059925 C
   0.0269947000000000    0.9214078299999999    0.3745318352059925 C
   0.0398086500000000    0.9347343200000000    0.3745318352059925 C
   0.0526225900000000    0.9480608200000001    0.3745318352059925 C
   0.0654365300000000    0.9613873200000000    0.3745318352059925 C
   0.0782504699999999    0.9747138200000000    0.3745318352059925 C
   0.0910644100000000    0.9880403200000001    0.3745318352059925 C
   0.0275072600000000    0.8819408899999999    0.3745318352059925 C
   0.0403212000000000    0.8952673800000001    0.3745318352059925 C
   0.0531351400000001    0.9085938800000000    0.3745318352059925 C
   0.0659490900000000    0.9219203800000000    0.3745318352059925 C
   0.0787630300000000    0.9352468800000000    0.3745318352059925 C
   0.0915769700000000    0.9485733800000000    0.3745318352059925 C
   0.1043909099999999    0.9618998800000000    0.3745318352059925 C
   0.1172048500000000    0.9752263799999999    0.3745318352059925 C
   0.1300187900000000    0.9885528800000001    0.3745318352059925 C
   0.0280198200000000    0.8424739400000000    0.3745318352059925 C
   0.0408337600000001    0.8558004399999999    0.3745318352059925 C
   0.0536477000000000    0.8691269400000000    0.3745318352059925 C
   0.0664616400000001    0.8824534399999999    0.3745318352059925 C
   0.0792755900000000    0.8957799399999999    0.3745318352059925 C
   0.0920895300000001    0.9091064400000000    0.3745318352059925 C
   0.1049034700000000    0.9224329400000000    0.3745318352059925 C
   0.1177174100000000    0.9357594400000000    0.3745318352059925 C
   0.1305313499999999    0.9490859400000000    0.3745318352059925 C
   0.1433452900000000    0.9624124400000000    0.3745318352059925 C
   0.1561592300000000    0.9757389400000001    0.3745318352059925 C
   0.1689731800000000    0.9890654400000001    0.3745318352059925 C
   0.0285323800000001    0.8030069999999999    0.3745318352059925 C
   0.0413463200000000    0.8163334999999999    0.3745318352059925 C
   0.0541602600000000    0.8296599999999998    0.3745318352059925 C
   0.0669742000000000    0.8429865000000000    0.3745318352059925 C
   0.0797881400000001    0.8563129999999999    0.3745318352059925 C
   0.0926020800000000    0.8696394999999999    0.3745318352059925 C
   0.1054160300000001    0.8829659999999999    0.3745318352059925 C
   0.1182299700000000    0.8962924999999999    0.3745318352059925 C
   0.1310439100000000    0.9096190000000000    0.3745318352059925 C
   0.1438578500000000    0.9229455000000000    0.3745318352059925 C
   0.1566717899999999    0.9362720000000000    0.3745318352059925 C
   0.1694857300000000    0.9495985000000000    0.3745318352059925 C
   0.1822996799999999    0.9629250000000001    0.3745318352059925 C
   0.1951136199999998    0.9762514899999999    0.3745318352059925 C
   0.2079275600000002    0.9895779899999999    0.3745318352059925 C
   0.0290449300000000    0.7635400599999999    0.3745318352059925 C
   0.0418588800000001    0.7768665599999999    0.3745318352059925 C
   0.0546728200000000    0.7901930600000000    0.3745318352059925 C
   0.0674867600000000    0.8035195599999999    0.3745318352059925 C
   0.0803007000000000    0.8168460600000000    0.3745318352059925 C
   0.0931146400000000    0.8301725599999999    0.3745318352059925 C
   0.1059285800000000    0.8434990599999999    0.3745318352059925 C
   0.1187425300000000    0.8568255599999999    0.3745318352059925 C
   0.1315564700000001    0.8701520599999999    0.3745318352059925 C
   0.1443704100000001    0.8834785599999999    0.3745318352059925 C
   0.1571843499999999    0.8968050599999999    0.3745318352059925 C
   0.1699982899999999    0.9101315600000001    0.3745318352059925 C
   0.1828122299999999    0.9234580600000000    0.3745318352059925 C
   0.1956261700000000    0.9367845500000000    0.3745318352059925 C
   0.2084401200000001    0.9501110499999998    0.3745318352059925 C
   0.2212540600000000    0.9634375500000000    0.3745318352059925 C
   0.2340680000000001    0.9767640499999999    0.3745318352059925 C
   0.2468819399999999    0.9900905500000000    0.3745318352059925 C
   0.0295574900000000    0.7240731200000000    0.3745318352059925 C
   0.0423714299999999    0.7373996200000000    0.3745318352059925 C
   0.0551853800000000    0.7507261200000001    0.3745318352059925 C
   0.0679993200000000    0.7640526200000000    0.3745318352059925 C
   0.0808132600000000    0.7773791199999999    0.3745318352059925 C
   0.0936272000000000    0.7907056200000000    0.3745318352059925 C
   0.1064411400000001    0.8040321199999999    0.3745318352059925 C
   0.1192550800000001    0.8173586200000000    0.3745318352059925 C
   0.1320690199999999    0.8306851199999999    0.3745318352059925 C
   0.1448829699999999    0.8440116200000001    0.3745318352059925 C
   0.1576969099999999    0.8573381200000000    0.3745318352059925 C
   0.1705108499999998    0.8706646200000001    0.3745318352059925 C
   0.1833247900000000    0.8839911200000000    0.3745318352059925 C
   0.1961387300000000    0.8973176100000000    0.3745318352059925 C
   0.2089526699999999    0.9106441100000000    0.3745318352059925 C
   0.2217666199999999    0.9239706100000000    0.3745318352059925 C
   0.2345805599999999    0.9372971100000000    0.3745318352059925 C
   0.2473945000000000    0.9506236099999998    0.3745318352059925 C
   0.2602084399999999    0.9639501100000000    0.3745318352059925 C
   0.2730223800000001    0.9772766099999999    0.3745318352059925 C
   0.2858363200000001    0.9906031100000000    0.3745318352059925 C
   0.0300700500000000    0.6846061800000000    0.3745318352059925 C
   0.0428839900000000    0.6979326800000000    0.3745318352059925 C
   0.0556979299999999    0.7112591800000000    0.3745318352059925 C
   0.0685118700000000    0.7245856800000000    0.3745318352059925 C
   0.0813258200000000    0.7379121800000000    0.3745318352059925 C
   0.0941397600000000    0.7512386800000002    0.3745318352059925 C
   0.1069536999999999    0.7645651800000000    0.3745318352059925 C
   0.1197676399999999    0.7778916799999999    0.3745318352059925 C
   0.1325815800000000    0.7912181800000000    0.3745318352059925 C
   0.1453955200000001    0.8045446799999999    0.3745318352059925 C
   0.1582094700000000    0.8178711800000000    0.3745318352059925 C
   0.1710234099999999    0.8311976799999999    0.3745318352059925 C
   0.1838373499999999    0.8445241800000001    0.3745318352059925 C
   0.1966512899999998    0.8578506700000001    0.3745318352059925 C
   0.2094652300000001    0.8711771699999999    0.3745318352059925 C
   0.2222791699999998    0.8845036700000000    0.3745318352059925 C
   0.2350931100000000    0.8978301700000000    0.3745318352059925 C
   0.2479070599999998    0.9111566700000000    0.3745318352059925 C
   0.2607210000000000    0.9244831700000001    0.3745318352059925 C
   0.2735349400000000    0.9378096700000000    0.3745318352059925 C
   0.2863488800000001    0.9511361699999998    0.3745318352059925 C
   0.2991628199999999    0.9644626700000000    0.3745318352059925 C
   0.3119767600000001    0.9777891699999999    0.3745318352059925 C
   0.3247907100000000    0.9911156700000000    0.3745318352059925 C
   0.0305826100000000    0.6451392400000000    0.3745318352059925 C
   0.0433965500000000    0.6584657400000000    0.3745318352059925 C
   0.0562104900000000    0.6717922400000000    0.3745318352059925 C
   0.0690244300000001    0.6851187399999999    0.3745318352059925 C
   0.0818383700000000    0.6984452400000000    0.3745318352059925 C
   0.0946523199999999    0.7117717400000000    0.3745318352059925 C
   0.1074662600000000    0.7250982400000001    0.3745318352059925 C
   0.1202802000000000    0.7384247400000000    0.3745318352059925 C
   0.1330941400000000    0.7517512400000002    0.3745318352059925 C
   0.1459080799999999    0.7650777400000000    0.3745318352059925 C
   0.1587220200000001    0.7784042399999999    0.3745318352059925 C
   0.1715359600000001    0.7917307400000000    0.3745318352059925 C
   0.1843499100000001    0.8050572399999999    0.3745318352059925 C
   0.1971638500000001    0.8183837300000000    0.3745318352059925 C
   0.2099777900000000    0.8317102300000001    0.3745318352059925 C
   0.2227917300000000    0.8450367300000000    0.3745318352059925 C
   0.2356056699999999    0.8583632300000001    0.3745318352059925 C
   0.2484196100000000    0.8716897300000001    0.3745318352059925 C
   0.2612335600000001    0.8850162300000000    0.3745318352059925 C
   0.2740474999999999    0.8983427300000001    0.3745318352059925 C
   0.2868614400000000    0.9116692300000000    0.3745318352059925 C
   0.2996753799999999    0.9249957300000001    0.3745318352059925 C
   0.3124893200000000    0.9383222300000000    0.3745318352059925 C
   0.3253032600000000    0.9516487300000002    0.3745318352059925 C
   0.3381172000000000    0.9649752300000000    0.3745318352059925 C
   0.3509311500000000    0.9783017299999999    0.3745318352059925 C
   0.3637450900000000    0.9916282199999999    0.3745318352059925 C
   0.0310951600000000    0.6056723000000001    0.3745318352059925 C
   0.0439091100000000    0.6189988000000000    0.3745318352059925 C
   0.0567230499999999    0.6323253000000000    0.3745318352059925 C
   0.0695369900000000    0.6456518000000000    0.3745318352059925 C
   0.0823509300000000    0.6589783000000000    0.3745318352059925 C
   0.0951648700000000    0.6723048000000000    0.3745318352059925 C
   0.1079788100000000    0.6856313000000002    0.3745318352059925 C
   0.1207927600000000    0.6989578000000001    0.3745318352059925 C
   0.1336067000000001    0.7122843000000000    0.3745318352059925 C
   0.1464206399999999    0.7256108000000001    0.3745318352059925 C
   0.1592345800000000    0.7389373000000000    0.3745318352059925 C
   0.1720485200000000    0.7522638000000001    0.3745318352059925 C
   0.1848624600000000    0.7655902999999999    0.3745318352059925 C
   0.1976764100000001    0.7789167900000000    0.3745318352059925 C
   0.2104903499999999    0.7922432899999999    0.3745318352059925 C
   0.2233042900000000    0.8055697900000001    0.3745318352059925 C
   0.2361182299999998    0.8188962900000000    0.3745318352059925 C
   0.2489321699999999    0.8322227900000001    0.3745318352059925 C
   0.2617461100000000    0.8455492900000000    0.3745318352059925 C
   0.2745600499999998    0.8588757900000001    0.3745318352059925 C
   0.2873739999999999    0.8722022900000000    0.3745318352059925 C
   0.3001879400000000    0.8855287900000000    0.3745318352059925 C
   0.3130018799999998    0.8988552900000001    0.3745318352059925 C
   0.3258158200000000    0.9121817900000000    0.3745318352059925 C
   0.3386297600000001    0.9255082900000001    0.3745318352059925 C
   0.3514436999999999    0.9388347900000000    0.3745318352059925 C
   0.3642576499999999    0.9521612800000000    0.3745318352059925 C
   0.3770715900000000    0.9654877799999999    0.3745318352059925 C
   0.3898855299999999    0.9788142800000000    0.3745318352059925 C
   0.4026994699999999    0.9921407799999999    0.3745318352059925 C
   0.0316077200000000    0.5662053600000000    0.3745318352059925 C
   0.0444216600000000    0.5795318600000000    0.3745318352059925 C
   0.0572356100000000    0.5928583600000000    0.3745318352059925 C
   0.0700495500000000    0.6061848600000000    0.3745318352059925 C
   0.0828634900000000    0.6195113600000000    0.3745318352059925 C
   0.0956774300000001    0.6328378600000000    0.3745318352059925 C
   0.1084913700000000    0.6461643600000001    0.3745318352059925 C
   0.1213053100000000    0.6594908600000000    0.3745318352059925 C
   0.1341192599999999    0.6728173600000000    0.3745318352059925 C
   0.1469332000000000    0.6861438600000000    0.3745318352059925 C
   0.1597471400000000    0.6994703600000001    0.3745318352059925 C
   0.1725610800000000    0.7127968600000000    0.3745318352059925 C
   0.1853750200000000    0.7261233600000001    0.3745318352059925 C
   0.1981889599999999    0.7394498500000000    0.3745318352059925 C
   0.2110029000000000    0.7527763500000000    0.3745318352059925 C
   0.2238168499999999    0.7661028500000000    0.3745318352059925 C
   0.2366307900000001    0.7794293500000000    0.3745318352059925 C
   0.2494447299999999    0.7927558500000000    0.3745318352059925 C
   0.2622586700000000    0.8060823500000001    0.3745318352059925 C
   0.2750726100000000    0.8194088500000000    0.3745318352059925 C
   0.2878865500000000    0.8327353500000001    0.3745318352059925 C
   0.3007005000000000    0.8460618500000000    0.3745318352059925 C
   0.3135144399999998    0.8593883500000000    0.3745318352059925 C
   0.3263283800000000    0.8727148500000000    0.3745318352059925 C
   0.3391423200000001    0.8860413499999999    0.3745318352059925 C
   0.3519562600000000    0.8993678500000001    0.3745318352059925 C
   0.3647701999999999    0.9126943399999999    0.3745318352059925 C
   0.3775841399999999    0.9260208400000000    0.3745318352059925 C
   0.3903980899999999    0.9393473399999999    0.3745318352059925 C
   0.4032120300000001    0.9526738400000000    0.3745318352059925 C
   0.4160259700000000    0.9660003399999999    0.3745318352059925 C
   0.4288399100000000    0.9793268400000000    0.3745318352059925 C
   0.4416538500000001    0.9926533399999999    0.3745318352059925 C
   0.0321202800000001    0.5267384200000000    0.3745318352059925 C
   0.0449342199999999    0.5400649199999999    0.3745318352059925 C
   0.0577481600000000    0.5533914200000000    0.3745318352059925 C
   0.0705621000000000    0.5667179200000000    0.3745318352059925 C
   0.0833760500000000    0.5800444200000000    0.3745318352059925 C
   0.0961899899999999    0.5933709200000000    0.3745318352059925 C
   0.1090039300000000    0.6066974200000000    0.3745318352059925 C
   0.1218178699999999    0.6200239200000000    0.3745318352059925 C
   0.1346318100000000    0.6333504200000000    0.3745318352059925 C
   0.1474457500000000    0.6466769200000000    0.3745318352059925 C
   0.1602597000000000    0.6600034200000000    0.3745318352059925 C
   0.1730736399999999    0.6733299200000000    0.3745318352059925 C
   0.1858875799999999    0.6866564200000000    0.3745318352059925 C
   0.1987015200000001    0.6999829099999999    0.3745318352059925 C
   0.2115154599999998    0.7133094099999999    0.3745318352059925 C
   0.2243294000000002    0.7266359099999999    0.3745318352059925 C
   0.2371433499999998    0.7399624100000000    0.3745318352059925 C
   0.2499572899999999    0.7532889100000000    0.3745318352059925 C
   0.2627712299999999    0.7666154100000000    0.3745318352059925 C
   0.2755851699999998    0.7799419100000000    0.3745318352059925 C
   0.2883991099999998    0.7932684100000000    0.3745318352059925 C
   0.3012130499999998    0.8065949100000002    0.3745318352059925 C
   0.3140269900000001    0.8199214100000000    0.3745318352059925 C
   0.3268409400000000    0.8332479100000000    0.3745318352059925 C
   0.3396548799999999    0.8465744100000000    0.3745318352059925 C
   0.3524688200000000    0.8599009100000000    0.3745318352059925 C
   0.3652827599999999    0.8732273999999999    0.3745318352059925 C
   0.3780967000000001    0.8865538999999999    0.3745318352059925 C
   0.3909106399999998    0.8998803999999999    0.3745318352059925 C
   0.4037245900000001    0.9132068999999999    0.3745318352059925 C
   0.4165385300000000    0.9265334000000000    0.3745318352059925 C
   0.4293524700000001    0.9398598999999999    0.3745318352059925 C
   0.4421664099999998    0.9531864000000000    0.3745318352059925 C
   0.4549803500000000    0.9665128999999999    0.3745318352059925 C
   0.4677942899999999    0.9798394000000000    0.3745318352059925 C
   0.4806082400000001    0.9931658999999999    0.3745318352059925 C
   0.0326328400000000    0.4872714800000000    0.3745318352059925 C
   0.0454467800000000    0.5005979800000000    0.3745318352059925 C
   0.0582607199999999    0.5139244800000000    0.3745318352059925 C
   0.0710746600000000    0.5272509800000000    0.3745318352059925 C
   0.0838886000000000    0.5405774800000001    0.3745318352059925 C
   0.0967025500000000    0.5539039800000000    0.3745318352059925 C
   0.1095164900000000    0.5672304800000000    0.3745318352059925 C
   0.1223304300000000    0.5805569800000000    0.3745318352059925 C
   0.1351443700000000    0.5938834800000000    0.3745318352059925 C
   0.1479583100000000    0.6072099800000000    0.3745318352059925 C
   0.1607722499999999    0.6205364799999999    0.3745318352059925 C
   0.1735862000000000    0.6338629800000000    0.3745318352059925 C
   0.1864001399999999    0.6471894800000000    0.3745318352059925 C
   0.1992140800000000    0.6605159700000000    0.3745318352059925 C
   0.2120280199999999    0.6738424700000000    0.3745318352059925 C
   0.2248419600000000    0.6871689699999999    0.3745318352059925 C
   0.2376559000000002    0.7004954699999999    0.3745318352059925 C
   0.2504698400000001    0.7138219699999999    0.3745318352059925 C
   0.2632837899999999    0.7271484699999999    0.3745318352059925 C
   0.2760977300000000    0.7404749700000000    0.3745318352059925 C
   0.2889116699999998    0.7538014700000001    0.3745318352059925 C
   0.3017256100000000    0.7671279700000000    0.3745318352059925 C
   0.3145395499999998    0.7804544700000001    0.3745318352059925 C
   0.3273534899999999    0.7937809700000000    0.3745318352059925 C
   0.3401674399999998    0.8071074700000002    0.3745318352059925 C
   0.3529813800000000    0.8204339700000000    0.3745318352059925 C
   0.3657953200000000    0.8337604600000000    0.3745318352059925 C
   0.3786092600000000    0.8470869600000001    0.3745318352059925 C
   0.3914232000000000    0.8604134599999999    0.3745318352059925 C
   0.4042371400000001    0.8737399599999999    0.3745318352059925 C
   0.4170510800000000    0.8870664599999999    0.3745318352059925 C
   0.4298650299999999    0.9003929599999999    0.3745318352059925 C
   0.4426789700000002    0.9137194599999999    0.3745318352059925 C
   0.4554929100000000    0.9270459599999999    0.3745318352059925 C
   0.4683068499999999    0.9403724599999999    0.3745318352059925 C
   0.4811207900000000    0.9536989600000000    0.3745318352059925 C
   0.4939347300000002    0.9670254599999999    0.3745318352059925 C
   0.5067486800000002    0.9803519599999999    0.3745318352059925 C
   0.5195626199999999    0.9936784599999999    0.3745318352059925 C
   0.0331454000000000    0.4478045400000000    0.3745318352059925 C
   0.0459593400000000    0.4611310400000000    0.3745318352059925 C
   0.0587732800000000    0.4744575400000000    0.3745318352059925 C
   0.0715872200000000    0.4877840400000000    0.3745318352059925 C
   0.0844011600000000    0.5011105400000000    0.3745318352059925 C
   0.0972151000000000    0.5144370400000000    0.3745318352059925 C
   0.1100290400000000    0.5277635400000000    0.3745318352059925 C
   0.1228429900000000    0.5410900400000000    0.3745318352059925 C
   0.1356569300000000    0.5544165400000000    0.3745318352059925 C
   0.1484708700000000    0.5677430400000000    0.3745318352059925 C
   0.1612848099999999    0.5810695400000000    0.3745318352059925 C
   0.1740987500000001    0.5943960400000000    0.3745318352059925 C
   0.1869126900000000    0.6077225400000000    0.3745318352059925 C
   0.1997266400000000    0.6210490300000000    0.3745318352059925 C
   0.2125405800000000    0.6343755300000000    0.3745318352059925 C
   0.2253545200000000    0.6477020300000000    0.3745318352059925 C
   0.2381684600000000    0.6610285299999999    0.3745318352059925 C
   0.2509824000000000    0.6743550300000000    0.3745318352059925 C
   0.2637963400000000    0.6876815299999999    0.3745318352059925 C
   0.2766102900000000    0.7010080299999999    0.3745318352059925 C
   0.2894242299999999    0.7143345299999999    0.3745318352059925 C
   0.3022381699999999    0.7276610300000000    0.3745318352059925 C
   0.3150521100000002    0.7409875299999999    0.3745318352059925 C
   0.3278660500000000    0.7543140300000001    0.3745318352059925 C
   0.3406799899999999    0.7676405300000000    0.3745318352059925 C
   0.3534939299999998    0.7809670300000001    0.3745318352059925 C
   0.3663078799999999    0.7942935200000001    0.3745318352059925 C
   0.3791218200000002    0.8076200200000000    0.3745318352059925 C
   0.3919357600000000    0.8209465200000000    0.3745318352059925 C
   0.4047497000000002    0.8342730200000000    0.3745318352059925 C
   0.4175636400000001    0.8475995200000001    0.3745318352059925 C
   0.4303775800000000    0.8609260199999998    0.3745318352059925 C
   0.4431915299999999    0.8742525199999999    0.3745318352059925 C
   0.4560054700000000    0.8875790199999999    0.3745318352059925 C
   0.4688194099999998    0.9009055200000000    0.3745318352059925 C
   0.4816333500000000    0.9142320199999999    0.3745318352059925 C
   0.4944472900000000    0.9275585200000001    0.3745318352059925 C
   0.5072612300000001    0.9408850199999998    0.3745318352059925 C
   0.5200751800000001    0.9542115199999999    0.3745318352059925 C
   0.5328891200000000    0.9675380100000001    0.3745318352059925 C
   0.5457030599999999    0.9808645100000000    0.3745318352059925 C
   0.5585170000000000    0.9941910100000000    0.3745318352059925 C
   0.0336579500000000    0.4083376000000000    0.3745318352059925 C
   0.0464718900000000    0.4216640999999999    0.3745318352059925 C
   0.0592858400000000    0.4349905999999999    0.3745318352059925 C
   0.0720997800000000    0.4483171000000000    0.3745318352059925 C
   0.0849137200000000    0.4616436000000000    0.3745318352059925 C
   0.0977276600000000    0.4749701000000000    0.3745318352059925 C
   0.1105416000000000    0.4882966000000000    0.3745318352059925 C
   0.1233555399999999    0.5016231000000000    0.3745318352059925 C
   0.1361694899999999    0.5149496000000000    0.3745318352059925 C
   0.1489834300000000    0.5282761000000000    0.3745318352059925 C
   0.1617973700000000    0.5416026000000000    0.3745318352059925 C
   0.1746113100000000    0.5549291000000000    0.3745318352059925 C
   0.1874252500000000    0.5682556000000000    0.3745318352059925 C
   0.2002391900000000    0.5815820900000001    0.3745318352059925 C
   0.2130531400000001    0.5949085900000000    0.3745318352059925 C
   0.2258670800000001    0.6082350900000000    0.3745318352059925 C
   0.2386810199999999    0.6215615900000000    0.3745318352059925 C
   0.2514949599999999    0.6348880900000000    0.3745318352059925 C
   0.2643089000000000    0.6482145900000000    0.3745318352059925 C
   0.2771228399999999    0.6615410900000001    0.3745318352059925 C
   0.2899367799999998    0.6748675900000000    0.3745318352059925 C
   0.3027507300000001    0.6881940899999999    0.3745318352059925 C
   0.3155646700000000    0.7015205900000000    0.3745318352059925 C
   0.3283786100000001    0.7148470899999999    0.3745318352059925 C
   0.3411925500000000    0.7281735900000000    0.3745318352059925 C
   0.3540064900000000    0.7415000899999999    0.3745318352059925 C
   0.3668204299999999    0.7548265800000000    0.3745318352059925 C
   0.3796343800000000    0.7681530800000002    0.3745318352059925 C
   0.3924483200000001    0.7814795800000000    0.3745318352059925 C
   0.4052622600000002    0.7948060800000000    0.3745318352059925 C
   0.4180762000000000    0.8081325800000000    0.3745318352059925 C
   0.4308901400000001    0.8214590800000000    0.3745318352059925 C
   0.4437040799999999    0.8347855800000000    0.3745318352059925 C
   0.4565180200000000    0.8481120800000000    0.3745318352059925 C
   0.4693319699999999    0.8614385799999998    0.3745318352059925 C
   0.4821459100000000    0.8747650800000000    0.3745318352059925 C
   0.4949598500000000    0.8880915799999999    0.3745318352059925 C
   0.5077737900000000    0.9014180800000000    0.3745318352059925 C
   0.5205877299999999    0.9147445799999999    0.3745318352059925 C
   0.5334016699999998    0.9280710700000000    0.3745318352059925 C
   0.5462156199999998    0.9413975700000001    0.3745318352059925 C
   0.5590295599999999    0.9547240700000000    0.3745318352059925 C
   0.5718434999999998    0.9680505700000002    0.3745318352059925 C
   0.5846574400000001    0.9813770700000000    0.3745318352059925 C
   0.5974713800000002    0.9947035700000000    0.3745318352059925 C
   0.0341705100000000    0.3688706600000000    0.3745318352059925 C
   0.0469844500000000    0.3821971600000000    0.3745318352059925 C
   0.0597983900000000    0.3955236600000000    0.3745318352059925 C
   0.0726123400000000    0.4088501600000000    0.3745318352059925 C
   0.0854262800000000    0.4221766599999999    0.3745318352059925 C
   0.0982402200000001    0.4355031599999999    0.3745318352059925 C
   0.1110541600000000    0.4488296600000000    0.3745318352059925 C
   0.1238681000000000    0.4621561600000000    0.3745318352059925 C
   0.1366820400000000    0.4754826600000000    0.3745318352059925 C
   0.1494959799999999    0.4888091600000000    0.3745318352059925 C
   0.1623099299999999    0.5021356600000000    0.3745318352059925 C
   0.1751238699999999    0.5154621600000000    0.3745318352059925 C
   0.1879378100000000    0.5287886600000000    0.3745318352059925 C
   0.2007517500000001    0.5421151500000000    0.3745318352059925 C
   0.2135656900000000    0.5554416500000000    0.3745318352059925 C
   0.2263796299999999    0.5687681500000000    0.3745318352059925 C
   0.2391935800000000    0.5820946500000000    0.3745318352059925 C
   0.2520075199999999    0.5954211500000000    0.3745318352059925 C
   0.2648214600000001    0.6087476500000000    0.3745318352059925 C
   0.2776354000000001    0.6220741500000000    0.3745318352059925 C
   0.2904493399999999    0.6354006500000000    0.3745318352059925 C
   0.3032632800000000    0.6487271500000000    0.3745318352059925 C
   0.3160772300000000    0.6620536500000000    0.3745318352059925 C
   0.3288911700000001    0.6753801500000000    0.3745318352059925 C
   0.3417051100000000    0.6887066499999999    0.3745318352059925 C
   0.3545190500000000    0.7020331500000000    0.3745318352059925 C
   0.3673329900000000    0.7153596400000001    0.3745318352059925 C
   0.3801469300000001    0.7286861400000000    0.3745318352059925 C
   0.3929608700000000    0.7420126400000001    0.3745318352059925 C
   0.4057748200000000    0.7553391400000000    0.3745318352059925 C
   0.4185887600000001    0.7686656400000001    0.3745318352059925 C
   0.4314027000000000    0.7819921399999999    0.3745318352059925 C
   0.4442166400000000    0.7953186400000000    0.3745318352059925 C
   0.4570305800000000    0.8086451400000000    0.3745318352059925 C
   0.4698445200000000    0.8219716400000000    0.3745318352059925 C
   0.4826584699999998    0.8352981400000001    0.3745318352059925 C
   0.4954724099999999    0.8486246400000000    0.3745318352059925 C
   0.5082863499999999    0.8619511399999998    0.3745318352059925 C
   0.5211002900000000    0.8752776400000000    0.3745318352059925 C
   0.5339142299999999    0.8886041300000000    0.3745318352059925 C
   0.5467281699999998    0.9019306300000000    0.3745318352059925 C
   0.5595421199999999    0.9152571300000001    0.3745318352059925 C
   0.5723560599999998    0.9285836300000000    0.3745318352059925 C
   0.5851700000000000    0.9419101300000001    0.3745318352059925 C
   0.5979839400000001    0.9552366300000000    0.3745318352059925 C
   0.6107978800000000    0.9685631300000002    0.3745318352059925 C
   0.6236118199999998    0.9818896300000000    0.3745318352059925 C
   0.6364257600000000    0.9952161300000000    0.3745318352059925 C
   0.0346830700000000    0.3294037200000000    0.3745318352059925 C
   0.0474970100000000    0.3427302200000000    0.3745318352059925 C
   0.0603109500000000    0.3560567200000000    0.3745318352059925 C
   0.0731248900000000    0.3693832200000000    0.3745318352059925 C
   0.0859388300000000    0.3827097200000000    0.3745318352059925 C
   0.0987527800000000    0.3960362200000000    0.3745318352059925 C
   0.1115667199999999    0.4093627200000001    0.3745318352059925 C
   0.1243806599999999    0.4226892199999999    0.3745318352059925 C
   0.1371946000000000    0.4360157199999999    0.3745318352059925 C
   0.1500085400000000    0.4493422200000000    0.3745318352059925 C
   0.1628224799999999    0.4626687200000000    0.3745318352059925 C
   0.1756364300000000    0.4759952200000000    0.3745318352059925 C
   0.1884503700000000    0.4893217200000000    0.3745318352059925 C
   0.2012643100000000    0.5026482100000000    0.3745318352059925 C
   0.2140782500000000    0.5159747099999999    0.3745318352059925 C
   0.2268921899999999    0.5293012100000000    0.3745318352059925 C
   0.2397061299999999    0.5426277100000000    0.3745318352059925 C
   0.2525200800000000    0.5559542100000000    0.3745318352059925 C
   0.2653340199999999    0.5692807100000000    0.3745318352059925 C
   0.2781479599999999    0.5826072100000000    0.3745318352059925 C
   0.2909619000000000    0.5959337099999999    0.3745318352059925 C
   0.3037758400000000    0.6092602100000000    0.3745318352059925 C
   0.3165897800000000    0.6225867100000000    0.3745318352059925 C
   0.3294037200000000    0.6359132100000000    0.3745318352059925 C
   0.3422176699999999    0.6492397100000000    0.3745318352059925 C
   0.3550316100000001    0.6625662100000000    0.3745318352059925 C
   0.3678455500000000    0.6758927000000000    0.3745318352059925 C
   0.3806594899999999    0.6892192000000000    0.3745318352059925 C
   0.3934734300000000    0.7025457000000001    0.3745318352059925 C
   0.4062873700000000    0.7158722000000001    0.3745318352059925 C
   0.4191013200000000    0.7291987000000000    0.3745318352059925 C
   0.4319152600000000    0.7425252000000001    0.3745318352059925 C
   0.4447291999999999    0.7558517000000000    0.3745318352059925 C
   0.4575431399999999    0.7691782000000001    0.3745318352059925 C
   0.4703570800000000    0.7825047000000001    0.3745318352059925 C
   0.4831710199999998    0.7958312000000000    0.3745318352059925 C
   0.4959849599999999    0.8091577000000001    0.3745318352059925 C
   0.5087989099999998    0.8224842000000000    0.3745318352059925 C
   0.5216128500000000    0.8358107000000001    0.3745318352059925 C
   0.5344267899999999    0.8491371899999999    0.3745318352059925 C
   0.5472407299999997    0.8624636900000000    0.3745318352059925 C
   0.5600546699999999    0.8757901899999999    0.3745318352059925 C
   0.5728686099999999    0.8891166900000000    0.3745318352059925 C
   0.5856825599999997    0.9024431900000000    0.3745318352059925 C
   0.5984965000000001    0.9157696900000001    0.3745318352059925 C
   0.6113104400000000    0.9290961900000000    0.3745318352059925 C
   0.6241243799999999    0.9424226900000001    0.3745318352059925 C
   0.6369383199999999    0.9557491900000000    0.3745318352059925 C
   0.6497522599999997    0.9690756900000002    0.3745318352059925 C
   0.6625662099999999    0.9824021900000001    0.3745318352059925 C
   0.6753801500000001    0.9957286900000000    0.3745318352059925 C
   0.0351956300000000    0.2899367800000000    0.3745318352059925 C
   0.0480095700000000    0.3032632800000000    0.3745318352059925 C
   0.0608235100000000    0.3165897799999999    0.3745318352059925 C
   0.0736374500000000    0.3299162800000000    0.3745318352059925 C
   0.0864513900000000    0.3432427800000000    0.3745318352059925 C
   0.0992653300000000    0.3565692800000000    0.3745318352059925 C
   0.1120792800000000    0.3698957800000000    0.3745318352059925 C
   0.1248932200000000    0.3832222800000000    0.3745318352059925 C
   0.1377071600000000    0.3965487799999999    0.3745318352059925 C
   0.1505211000000000    0.4098752800000000    0.3745318352059925 C
   0.1633350400000000    0.4232017800000000    0.3745318352059925 C
   0.1761489800000000    0.4365282799999999    0.3745318352059925 C
   0.1889629200000001    0.4498547800000000    0.3745318352059925 C
   0.2017768700000000    0.4631812700000000    0.3745318352059925 C
   0.2145908100000000    0.4765077700000000    0.3745318352059925 C
   0.2274047500000000    0.4898342700000000    0.3745318352059925 C
   0.2402186900000000    0.5031607700000000    0.3745318352059925 C
   0.2530326300000000    0.5164872700000001    0.3745318352059925 C
   0.2658465699999999    0.5298137700000000    0.3745318352059925 C
   0.2786605200000000    0.5431402700000000    0.3745318352059925 C
   0.2914744599999999    0.5564667700000000    0.3745318352059925 C
   0.3042883999999998    0.5697932700000000    0.3745318352059925 C
   0.3171023400000000    0.5831197700000000    0.3745318352059925 C
   0.3299162800000001    0.5964462699999999    0.3745318352059925 C
   0.3427302200000000    0.6097727700000000    0.3745318352059925 C
   0.3555441700000000    0.6230992700000000    0.3745318352059925 C
   0.3683581100000000    0.6364257600000000    0.3745318352059925 C
   0.3811720499999999    0.6497522600000000    0.3745318352059925 C
   0.3939859900000000    0.6630787600000000    0.3745318352059925 C
   0.4067999299999999    0.6764052600000000    0.3745318352059925 C
   0.4196138700000001    0.6897317600000000    0.3745318352059925 C
   0.4324278100000001    0.7030582600000000    0.3745318352059925 C
   0.4452417599999998    0.7163847600000001    0.3745318352059925 C
   0.4580557000000001    0.7297112600000000    0.3745318352059925 C
   0.4708696400000000    0.7430377600000001    0.3745318352059925 C
   0.4836835800000000    0.7563642600000000    0.3745318352059925 C
   0.4964975200000000    0.7696907600000001    0.3745318352059925 C
   0.5093114600000000    0.7830172600000000    0.3745318352059925 C
   0.5221254100000000    0.7963437600000000    0.3745318352059925 C
   0.5349393500000000    0.8096702499999999    0.3745318352059925 C
   0.5477532899999998    0.8229967500000001    0.3745318352059925 C
   0.5605672299999999    0.8363232500000000    0.3745318352059925 C
   0.5733811699999998    0.8496497499999999    0.3745318352059925 C
   0.5861951100000000    0.8629762500000000    0.3745318352059925 C
   0.5990090600000001    0.8763027499999999    0.3745318352059925 C
   0.6118229999999998    0.8896292500000000    0.3745318352059925 C
   0.6246369399999999    0.9029557499999999    0.3745318352059925 C
   0.6374508800000001    0.9162822500000001    0.3745318352059925 C
   0.6502648200000001    0.9296087500000000    0.3745318352059925 C
   0.6630787599999999    0.9429352500000001    0.3745318352059925 C
   0.6758926999999999    0.9562617500000000    0.3745318352059925 C
   0.6887066499999996    0.9695882500000002    0.3745318352059925 C
   0.7015205899999998    0.9829147399999999    0.3745318352059925 C
   0.7143345300000000    0.9962412400000000    0.3745318352059925 C
   0.0357081800000000    0.2504698400000000    0.3745318352059925 C
   0.0485221300000000    0.2637963400000000    0.3745318352059925 C
   0.0613360700000000    0.2771228400000000    0.3745318352059925 C
   0.0741500100000000    0.2904493400000000    0.3745318352059925 C
   0.0869639500000000    0.3037758400000000    0.3745318352059925 C
   0.0997778900000000    0.3171023400000000    0.3745318352059925 C
   0.1125918300000000    0.3304288400000000    0.3745318352059925 C
   0.1254057700000000    0.3437553400000000    0.3745318352059925 C
   0.1382197200000000    0.3570818400000000    0.3745318352059925 C
   0.1510336600000000    0.3704083400000000    0.3745318352059925 C
   0.1638476000000000    0.3837348400000000    0.3745318352059925 C
   0.1766615400000000    0.3970613399999999    0.3745318352059925 C
   0.1894754800000000    0.4103878399999999    0.3745318352059925 C
   0.2022894200000000    0.4237143300000000    0.3745318352059925 C
   0.2151033700000000    0.4370408300000000    0.3745318352059925 C
   0.2279173100000001    0.4503673300000000    0.3745318352059925 C
   0.2407312500000000    0.4636938300000000    0.3745318352059925 C
   0.2535451899999999    0.4770203299999999    0.3745318352059925 C
   0.2663591300000000    0.4903468300000000    0.3745318352059925 C
   0.2791730700000000    0.5036733300000000    0.3745318352059925 C
   0.2919870200000000    0.5169998300000000    0.3745318352059925 C
   0.3048009600000000    0.5303263300000000    0.3745318352059925 C
   0.3176149000000000    0.5436528300000000    0.3745318352059925 C
   0.3304288399999999    0.5569793300000000    0.3745318352059925 C
   0.3432427799999999    0.5703058300000000    0.3745318352059925 C
   0.3560567200000000    0.5836323300000000    0.3745318352059925 C
   0.3688706600000000    0.5969588200000000    0.3745318352059925 C
   0.3816846100000000    0.6102853200000000    0.3745318352059925 C
   0.3944985499999998    0.6236118200000000    0.3745318352059925 C
   0.4073124900000000    0.6369383199999999    0.3745318352059925 C
   0.4201264299999999    0.6502648200000000    0.3745318352059925 C
   0.4329403700000000    0.6635913200000000    0.3745318352059925 C
   0.4457543099999998    0.6769178200000000    0.3745318352059925 C
   0.4585682600000000    0.6902443200000000    0.3745318352059925 C
   0.4713822000000000    0.7035708200000000    0.3745318352059925 C
   0.4841961399999999    0.7168973200000001    0.3745318352059925 C
   0.4970100800000000    0.7302238200000000    0.3745318352059925 C
   0.5098240199999999    0.7435503200000001    0.3745318352059925 C
   0.5226379599999998    0.7568768200000000    0.3745318352059925 C
   0.5354519100000001    0.7702033100000000    0.3745318352059925 C
   0.5482658500000001    0.7835298099999999    0.3745318352059925 C
   0.5610797900000000    0.7968563100000000    0.3745318352059925 C
   0.5738937300000000    0.8101828099999999    0.3745318352059925 C
   0.5867076700000000    0.8235093099999999    0.3745318352059925 C
   0.5995216099999999    0.8368358100000000    0.3745318352059925 C
   0.6123355500000001    0.8501623099999999    0.3745318352059925 C
   0.6251494999999999    0.8634888100000000    0.3745318352059925 C
   0.6379634400000004    0.8768153099999999    0.3745318352059925 C
   0.6507773800000000    0.8901418100000000    0.3745318352059925 C
   0.6635913200000002    0.9034683099999999    0.3745318352059925 C
   0.6764052599999998    0.9167948100000001    0.3745318352059925 C
   0.6892192000000000    0.9301213100000000    0.3745318352059925 C
   0.7020331500000001    0.9434477999999999    0.3745318352059925 C
   0.7148470900000001    0.9567742999999999    0.3745318352059925 C
   0.7276610299999997    0.9701008000000000    0.3745318352059925 C
   0.7404749699999997    0.9834272999999999    0.3745318352059925 C
   0.7532889100000002    0.9967538000000000    0.3745318352059925 C
   0.0362207400000000    0.2110029000000000    0.3745318352059925 C
   0.0490346800000000    0.2243294000000000    0.3745318352059925 C
   0.0618486200000000    0.2376559000000000    0.3745318352059925 C
   0.0746625700000000    0.2509824000000000    0.3745318352059925 C
   0.0874765100000000    0.2643089000000000    0.3745318352059925 C
   0.1002904500000000    0.2776354000000000    0.3745318352059925 C
   0.1131043900000000    0.2909619000000000    0.3745318352059925 C
   0.1259183300000000    0.3042884000000000    0.3745318352059925 C
   0.1387322700000000    0.3176149000000000    0.3745318352059925 C
   0.1515462200000000    0.3309414000000000    0.3745318352059925 C
   0.1643601600000001    0.3442679000000000    0.3745318352059925 C
   0.1771741000000000    0.3575944000000000    0.3745318352059925 C
   0.1899880400000000    0.3709209000000001    0.3745318352059925 C
   0.2028019799999999    0.3842473900000001    0.3745318352059925 C
   0.2156159200000000    0.3975738900000000    0.3745318352059925 C
   0.2284298700000000    0.4109003900000000    0.3745318352059925 C
   0.2412438100000000    0.4242268900000000    0.3745318352059925 C
   0.2540577500000001    0.4375533900000000    0.3745318352059925 C
   0.2668716900000001    0.4508798900000000    0.3745318352059925 C
   0.2796856299999999    0.4642063900000000    0.3745318352059925 C
   0.2924995699999999    0.4775328899999999    0.3745318352059925 C
   0.3053135100000001    0.4908593900000000    0.3745318352059925 C
   0.3181274600000000    0.5041858900000000    0.3745318352059925 C
   0.3309413999999999    0.5175123900000000    0.3745318352059925 C
   0.3437553400000000    0.5308388900000000    0.3745318352059925 C
   0.3565692800000002    0.5441653900000000    0.3745318352059925 C
   0.3693832200000001    0.5574918800000001    0.3745318352059925 C
   0.3821971599999998    0.5708183800000000    0.3745318352059925 C
   0.3950111100000000    0.5841448800000000    0.3745318352059925 C
   0.4078250499999999    0.5974713800000000    0.3745318352059925 C
   0.4206389900000000    0.6107978800000000    0.3745318352059925 C
   0.4334529300000000    0.6241243800000000    0.3745318352059925 C
   0.4462668700000000    0.6374508800000001    0.3745318352059925 C
   0.4590808100000000    0.6507773800000000    0.3745318352059925 C
   0.4718947500000000    0.6641038800000000    0.3745318352059925 C
   0.4847086999999999    0.6774303800000000    0.3745318352059925 C
   0.4975226400000002    0.6907568800000000    0.3745318352059925 C
   0.5103365799999998    0.7040833800000000    0.3745318352059925 C
   0.5231505200000000    0.7174098800000002    0.3745318352059925 C
   0.5359644600000000    0.7307363700000001    0.3745318352059925 C
   0.5487784000000000    0.7440628700000000    0.3745318352059925 C
   0.5615923500000001    0.7573893699999998    0.3745318352059925 C
   0.5744062900000000    0.7707158700000000    0.3745318352059925 C
   0.5872202299999999    0.7840423699999999    0.3745318352059925 C
   0.6000341700000003    0.7973688699999999    0.3745318352059925 C
   0.6128481099999998    0.8106953699999999    0.3745318352059925 C
   0.6256620500000002    0.8240218699999999    0.3745318352059925 C
   0.6384759999999998    0.8373483700000000    0.3745318352059925 C
   0.6512899400000000    0.8506748700000000    0.3745318352059925 C
   0.6641038800000001    0.8640013700000000    0.3745318352059925 C
   0.6769178199999999    0.8773278699999999    0.3745318352059925 C
   0.6897317600000001    0.8906543700000000    0.3745318352059925 C
   0.7025457000000001    0.9039808600000001    0.3745318352059925 C
   0.7153596399999996    0.9173073600000000    0.3745318352059925 C
   0.7281735900000000    0.9306338600000001    0.3745318352059925 C
   0.7409875299999998    0.9439603600000001    0.3745318352059925 C
   0.7538014699999999    0.9572868599999999    0.3745318352059925 C
   0.7666154099999999    0.9706133599999999    0.3745318352059925 C
   0.7794293500000001    0.9839398599999999    0.3745318352059925 C
   0.7922432899999997    0.9972663599999999    0.3745318352059925 C
   0.0367333000000000    0.1715359600000000    0.3745318352059925 C
   0.0495472400000000    0.1848624600000000    0.3745318352059925 C
   0.0623611800000000    0.1981889600000000    0.3745318352059925 C
   0.0751751200000000    0.2115154600000000    0.3745318352059925 C
   0.0879890700000000    0.2248419600000000    0.3745318352059925 C
   0.1008030100000000    0.2381684600000000    0.3745318352059925 C
   0.1136169500000000    0.2514949600000000    0.3745318352059925 C
   0.1264308900000000    0.2648214600000000    0.3745318352059925 C
   0.1392448300000000    0.2781479600000000    0.3745318352059925 C
   0.1520587700000000    0.2914744600000000    0.3745318352059925 C
   0.1648727100000000    0.3048009600000000    0.3745318352059925 C
   0.1776866600000000    0.3181274600000000    0.3745318352059925 C
   0.1905006000000000    0.3314539600000000    0.3745318352059925 C
   0.2033145399999999    0.3447804500000000    0.3745318352059925 C
   0.2161284800000000    0.3581069500000000    0.3745318352059925 C
   0.2289424200000000    0.3714334500000001    0.3745318352059925 C
   0.2417563600000000    0.3847599500000001    0.3745318352059925 C
   0.2545703100000000    0.3980864500000000    0.3745318352059925 C
   0.2673842500000000    0.4114129500000000    0.3745318352059925 C
   0.2801981900000000    0.4247394500000000    0.3745318352059925 C
   0.2930121300000000    0.4380659500000000    0.3745318352059925 C
   0.3058260699999999    0.4513924500000001    0.3745318352059925 C
   0.3186400099999999    0.4647189500000001    0.3745318352059925 C
   0.3314539599999999    0.4780454499999999    0.3745318352059925 C
   0.3442678999999998    0.4913719499999999    0.3745318352059925 C
   0.3570818400000000    0.5046984500000000    0.3745318352059925 C
   0.3698957800000001    0.5180249400000000    0.3745318352059925 C
   0.3827097200000000    0.5313514400000000    0.3745318352059925 C
   0.3955236600000000    0.5446779400000000    0.3745318352059925 C
   0.4083376000000000    0.5580044400000000    0.3745318352059925 C
   0.4211515499999999    0.5713309400000000    0.3745318352059925 C
   0.4339654900000000    0.5846574400000000    0.3745318352059925 C
   0.4467794299999999    0.5979839400000000    0.3745318352059925 C
   0.4595933699999999    0.6113104400000000    0.3745318352059925 C
   0.4724073100000001    0.6246369400000000    0.3745318352059925 C
   0.4852212499999998    0.6379634400000000    0.3745318352059925 C
   0.4980352000000000    0.6512899400000000    0.3745318352059925 C
   0.5108491400000000    0.6646164400000000    0.3745318352059925 C
   0.5236630799999997    0.6779429400000000    0.3745318352059925 C
   0.5364770200000000    0.6912694300000000    0.3745318352059925 C
   0.5492909599999999    0.7045959300000001    0.3745318352059925 C
   0.5621049000000000    0.7179224300000000    0.3745318352059925 C
   0.5749188500000000    0.7312489300000001    0.3745318352059925 C
   0.5877327900000000    0.7445754300000000    0.3745318352059925 C
   0.6005467300000000    0.7579019299999998    0.3745318352059925 C
   0.6133606700000002    0.7712284299999999    0.3745318352059925 C
   0.6261746100000000    0.7845549299999999    0.3745318352059925 C
   0.6389885500000001    0.7978814299999999    0.3745318352059925 C
   0.6518024900000002    0.8112079299999999    0.3745318352059925 C
   0.6646164400000001    0.8245344299999999    0.3745318352059925 C
   0.6774303800000000    0.8378609299999999    0.3745318352059925 C
   0.6902443199999999    0.8511874300000000    0.3745318352059925 C
   0.7030582600000000    0.8645139200000000    0.3745318352059925 C
   0.7158721999999997    0.8778404200000001    0.3745318352059925 C
   0.7286861400000000    0.8911669200000000    0.3745318352059925 C
   0.7415000899999995    0.9044934200000001    0.3745318352059925 C
   0.7543140300000002    0.9178199200000000    0.3745318352059925 C
   0.7671279700000000    0.9311464200000001    0.3745318352059925 C
   0.7799419100000000    0.9444729200000000    0.3745318352059925 C
   0.7927558500000000    0.9577994199999998    0.3745318352059925 C
   0.8055697900000001    0.9711259199999999    0.3745318352059925 C
   0.8183837299999999    0.9844524199999999    0.3745318352059925 C
   0.8311976799999998    0.9977789199999999    0.3745318352059925 C
   0.0372458600000000    0.1320690200000000    0.3745318352059925 C
   0.0500598000000000    0.1453955200000000    0.3745318352059925 C
   0.0628737400000000    0.1587220200000000    0.3745318352059925 C
   0.0756876800000000    0.1720485200000000    0.3745318352059925 C
   0.0885016200000000    0.1853750200000000    0.3745318352059925 C
   0.1013155600000000    0.1987015200000000    0.3745318352059925 C
   0.1141295100000000    0.2120280200000000    0.3745318352059925 C
   0.1269434500000000    0.2253545200000000    0.3745318352059925 C
   0.1397573900000001    0.2386810200000000    0.3745318352059925 C
   0.1525713300000000    0.2520075200000000    0.3745318352059925 C
   0.1653852699999999    0.2653340200000000    0.3745318352059925 C
   0.1781992100000000    0.2786605200000000    0.3745318352059925 C
   0.1910131600000000    0.2919870200000000    0.3745318352059925 C
   0.2038271000000000    0.3053135100000000    0.3745318352059925 C
   0.2166410400000000    0.3186400100000000    0.3745318352059925 C
   0.2294549800000000    0.3319665100000000    0.3745318352059925 C
   0.2422689199999999    0.3452930100000000    0.3745318352059925 C
   0.2550828600000000    0.3586195100000000    0.3745318352059925 C
   0.2678968100000000    0.3719460100000000    0.3745318352059925 C
   0.2807107499999999    0.3852725100000000    0.3745318352059925 C
   0.2935246900000000    0.3985990100000000    0.3745318352059925 C
   0.3063386300000000    0.4119255100000000    0.3745318352059925 C
   0.3191525700000000    0.4252520100000000    0.3745318352059925 C
   0.3319665099999999    0.4385785099999999    0.3745318352059925 C
   0.3447804500000000    0.4519050099999999    0.3745318352059925 C
   0.3575944000000000    0.4652315100000000    0.3745318352059925 C
   0.3704083399999999    0.4785580000000000    0.3745318352059925 C
   0.3832222799999999    0.4918845000000000    0.3745318352059925 C
   0.3960362199999999    0.5052110000000000    0.3745318352059925 C
   0.4088501600000001    0.5185375000000000    0.3745318352059925 C
   0.4216640999999998    0.5318640000000000    0.3745318352059925 C
   0.4344780500000001    0.5451905000000000    0.3745318352059925 C
   0.4472919899999999    0.5585170000000000    0.3745318352059925 C
   0.4601059300000000    0.5718434999999999    0.3745318352059925 C
   0.4729198699999999    0.5851700000000000    0.3745318352059925 C
   0.4857338099999999    0.5984965000000000    0.3745318352059925 C
   0.4985477499999997    0.6118230000000000    0.3745318352059925 C
   0.5113616900000000    0.6251495000000000    0.3745318352059925 C
   0.5241756399999999    0.6384760000000000    0.3745318352059925 C
   0.5369895800000000    0.6518024900000000    0.3745318352059925 C
   0.5498035199999998    0.6651289900000000    0.3745318352059925 C
   0.5626174600000000    0.6784554900000000    0.3745318352059925 C
   0.5754314000000000    0.6917819900000000    0.3745318352059925 C
   0.5882453399999998    0.7051084900000001    0.3745318352059925 C
   0.6010592900000000    0.7184349900000000    0.3745318352059925 C
   0.6138732300000000    0.7317614900000000    0.3745318352059925 C
   0.6266871699999997    0.7450879900000000    0.3745318352059925 C
   0.6395011099999998    0.7584144900000001    0.3745318352059925 C
   0.6523150500000000    0.7717409899999998    0.3745318352059925 C
   0.6651289899999999    0.7850674899999999    0.3745318352059925 C
   0.6779429400000002    0.7983939899999999    0.3745318352059925 C
   0.6907568799999999    0.8117204899999999    0.3745318352059925 C
   0.7035708200000003    0.8250469800000000    0.3745318352059925 C
   0.7163847600000000    0.8383734800000000    0.3745318352059925 C
   0.7291986999999996    0.8516999800000000    0.3745318352059925 C
   0.7420126400000000    0.8650264800000000    0.3745318352059925 C
   0.7548265799999999    0.8783529800000001    0.3745318352059925 C
   0.7676405300000001    0.8916794800000000    0.3745318352059925 C
   0.7804544699999999    0.9050059800000001    0.3745318352059925 C
   0.7932684099999999    0.9183324800000000    0.3745318352059925 C
   0.8060823499999997    0.9316589800000000    0.3745318352059925 C
   0.8188962900000000    0.9449854800000000    0.3745318352059925 C
   0.8317102300000000    0.9583119799999998    0.3745318352059925 C
   0.8445241800000000    0.9716384799999999    0.3745318352059925 C
   0.8573381199999999    0.9849649800000000    0.3745318352059925 C
   0.8701520599999997    0.9982914700000000    0.3745318352059925 C
   0.0377584100000000    0.0926020800000000    0.3745318352059925 C
   0.0505723600000000    0.1059285800000000    0.3745318352059925 C
   0.0633863000000000    0.1192550800000000    0.3745318352059925 C
   0.0762002400000000    0.1325815800000000    0.3745318352059925 C
   0.0890141800000000    0.1459080800000000    0.3745318352059925 C
   0.1018281200000000    0.1592345800000000    0.3745318352059925 C
   0.1146420600000000    0.1725610800000000    0.3745318352059925 C
   0.1274560100000000    0.1858875800000000    0.3745318352059925 C
   0.1402699500000000    0.1992140800000000    0.3745318352059925 C
   0.1530838900000001    0.2125405800000000    0.3745318352059925 C
   0.1658978300000000    0.2258670800000000    0.3745318352059925 C
   0.1787117700000000    0.2391935800000000    0.3745318352059925 C
   0.1915257100000000    0.2525200800000000    0.3745318352059925 C
   0.2043396500000000    0.2658465700000000    0.3745318352059925 C
   0.2171536000000001    0.2791730700000000    0.3745318352059925 C
   0.2299675400000000    0.2924995700000000    0.3745318352059925 C
   0.2427814800000000    0.3058260700000000    0.3745318352059925 C
   0.2555954200000000    0.3191525700000000    0.3745318352059925 C
   0.2684093600000000    0.3324790700000000    0.3745318352059925 C
   0.2812233000000000    0.3458055700000000    0.3745318352059925 C
   0.2940372499999999    0.3591320700000000    0.3745318352059925 C
   0.3068511899999999    0.3724585700000000    0.3745318352059925 C
   0.3196651300000001    0.3857850700000000    0.3745318352059925 C
   0.3324790699999999    0.3991115700000000    0.3745318352059925 C
   0.3452930100000001    0.4124380700000000    0.3745318352059925 C
   0.3581069500000000    0.4257645700000000    0.3745318352059925 C
   0.3709209000000001    0.4390910600000000    0.3745318352059925 C
   0.3837348400000000    0.4524175600000001    0.3745318352059925 C
   0.3965487800000000    0.4657440600000000    0.3745318352059925 C
   0.4093627200000000    0.4790705600000000    0.3745318352059925 C
   0.4221766599999999    0.4923970600000000    0.3745318352059925 C
   0.4349906000000001    0.5057235600000000    0.3745318352059925 C
   0.4478045400000001    0.5190500600000000    0.3745318352059925 C
   0.4606184900000000    0.5323765600000000    0.3745318352059925 C
   0.4734324300000001    0.5457030600000000    0.3745318352059925 C
   0.4862463700000000    0.5590295600000000    0.3745318352059925 C
   0.4990603100000001    0.5723560600000001    0.3745318352059925 C
   0.5118742500000000    0.5856825600000000    0.3745318352059925 C
   0.5246881900000000    0.5990090600000000    0.3745318352059925 C
   0.5375021400000001    0.6123355500000000    0.3745318352059925 C
   0.5503160800000000    0.6256620500000000    0.3745318352059925 C
   0.5631300200000001    0.6389885500000000    0.3745318352059925 C
   0.5759439599999999    0.6523150500000000    0.3745318352059925 C
   0.5887578999999999    0.6656415500000000    0.3745318352059925 C
   0.6015718399999997    0.6789680500000002    0.3745318352059925 C
   0.6143857899999999    0.6922945500000000    0.3745318352059925 C
   0.6271997300000000    0.7056210500000000    0.3745318352059925 C
   0.6400136699999999    0.7189475500000000    0.3745318352059925 C
   0.6528276100000001    0.7322740500000000    0.3745318352059925 C
   0.6656415499999998    0.7456005500000000    0.3745318352059925 C
   0.6784554900000002    0.7589270500000000    0.3745318352059925 C
   0.6912694300000002    0.7722535499999998    0.3745318352059925 C
   0.7040833800000003    0.7855800399999999    0.3745318352059925 C
   0.7168973200000002    0.7989065399999999    0.3745318352059925 C
   0.7297112599999999    0.8122330400000000    0.3745318352059925 C
   0.7425252000000000    0.8255595400000000    0.3745318352059925 C
   0.7553391400000001    0.8388860400000000    0.3745318352059925 C
   0.7681530799999998    0.8522125400000001    0.3745318352059925 C
   0.7809670300000001    0.8655390400000000    0.3745318352059925 C
   0.7937809699999998    0.8788655399999999    0.3745318352059925 C
   0.8065949100000003    0.8921920400000000    0.3745318352059925 C
   0.8194088499999999    0.9055185400000000    0.3745318352059925 C
   0.8322227899999999    0.9188450400000000    0.3745318352059925 C
   0.8450367299999999    0.9321715400000000    0.3745318352059925 C
   0.8578506700000004    0.9454980400000000    0.3745318352059925 C
   0.8706646200000002    0.9588245299999999    0.3745318352059925 C
   0.8834785600000000    0.9721510299999999    0.3745318352059925 C
   0.8962924999999998    0.9854775299999999    0.3745318352059925 C
   0.9091064400000001    0.9988040300000000    0.3745318352059925 C
   0.0382709700000000    0.0531351400000000    0.3745318352059925 C
   0.0510849100000000    0.0664616400000000    0.3745318352059925 C
   0.0638988600000000    0.0797881400000000    0.3745318352059925 C
   0.0767128000000000    0.0931146400000000    0.3745318352059925 C
   0.0895267400000000    0.1064411400000000    0.3745318352059925 C
   0.1023406800000000    0.1197676400000000    0.3745318352059925 C
   0.1151546200000000    0.1330941400000000    0.3745318352059925 C
   0.1279685600000000    0.1464206400000000    0.3745318352059925 C
   0.1407825000000000    0.1597471400000000    0.3745318352059925 C
   0.1535964499999999    0.1730736400000000    0.3745318352059925 C
   0.1664103900000000    0.1864001400000000    0.3745318352059925 C
   0.1792243300000000    0.1997266400000000    0.3745318352059925 C
   0.1920382700000000    0.2130531400000000    0.3745318352059925 C
   0.2048522100000000    0.2263796300000000    0.3745318352059925 C
   0.2176661500000000    0.2397061300000000    0.3745318352059925 C
   0.2304801000000000    0.2530326300000000    0.3745318352059925 C
   0.2432940400000000    0.2663591300000000    0.3745318352059925 C
   0.2561079800000000    0.2796856300000000    0.3745318352059925 C
   0.2689219200000000    0.2930121300000000    0.3745318352059925 C
   0.2817358600000000    0.3063386300000000    0.3745318352059925 C
   0.2945497999999999    0.3196651300000000    0.3745318352059925 C
   0.3073637500000000    0.3329916300000000    0.3745318352059925 C
   0.3201776900000001    0.3463181300000001    0.3745318352059925 C
   0.3329916300000000    0.3596446300000001    0.3745318352059925 C
   0.3458055699999999    0.3729711300000000    0.3745318352059925 C
   0.3586195099999998    0.3862976300000000    0.3745318352059925 C
   0.3714334499999999    0.3996241200000000    0.3745318352059925 C
   0.3842473899999999    0.4129506200000000    0.3745318352059925 C
   0.3970613399999999    0.4262771200000001    0.3745318352059925 C
   0.4098752800000001    0.4396036200000000    0.3745318352059925 C
   0.4226892200000000    0.4529301200000000    0.3745318352059925 C
   0.4355031600000000    0.4662566200000000    0.3745318352059925 C
   0.4483171000000000    0.4795831200000000    0.3745318352059925 C
   0.4611310400000000    0.4929096200000000    0.3745318352059925 C
   0.4739449900000000    0.5062361200000000    0.3745318352059925 C
   0.4867589300000000    0.5195626200000000    0.3745318352059925 C
   0.4995728699999999    0.5328891200000000    0.3745318352059925 C
   0.5123868100000000    0.5462156200000000    0.3745318352059925 C
   0.5252007499999999    0.5595421200000000    0.3745318352059925 C
   0.5380146899999999    0.5728686100000000    0.3745318352059925 C
   0.5508286300000000    0.5861951100000000    0.3745318352059925 C
   0.5636425800000001    0.5995216100000000    0.3745318352059925 C
   0.5764565199999999    0.6128481099999999    0.3745318352059925 C
   0.5892704599999998    0.6261746100000000    0.3745318352059925 C
   0.6020843999999999    0.6395011100000000    0.3745318352059925 C
   0.6148983399999999    0.6528276100000000    0.3745318352059925 C
   0.6277122799999998    0.6661541100000000    0.3745318352059925 C
   0.6405262299999998    0.6794806100000002    0.3745318352059925 C
   0.6533401700000000    0.6928071099999999    0.3745318352059925 C
   0.6661541099999998    0.7061336100000000    0.3745318352059925 C
   0.6789680500000002    0.7194601100000000    0.3745318352059925 C
   0.6917819900000001    0.7327866100000000    0.3745318352059925 C
   0.7045959299999998    0.7461131000000000    0.3745318352059925 C
   0.7174098799999998    0.7594396000000001    0.3745318352059925 C
   0.7302238199999997    0.7727661000000000    0.3745318352059925 C
   0.7430377600000001    0.7860926000000001    0.3745318352059925 C
   0.7558516999999999    0.7994191000000000    0.3745318352059925 C
   0.7686656399999998    0.8127456000000000    0.3745318352059925 C
   0.7814795800000002    0.8260721000000001    0.3745318352059925 C
   0.7942935199999999    0.8393986000000000    0.3745318352059925 C
   0.8071074699999999    0.8527251000000001    0.3745318352059925 C
   0.8199214100000001    0.8660516000000000    0.3745318352059925 C
   0.8327353500000000    0.8793781000000002    0.3745318352059925 C
   0.8455492900000000    0.8927046000000000    0.3745318352059925 C
   0.8583632299999998    0.9060311000000000    0.3745318352059925 C
   0.8711771699999999    0.9193575899999998    0.3745318352059925 C
   0.8839911200000004    0.9326840899999999    0.3745318352059925 C
   0.8968050599999999    0.9460105899999999    0.3745318352059925 C
   0.9096189999999997    0.9593370899999999    0.3745318352059925 C
   0.9224329400000002    0.9726635899999999    0.3745318352059925 C
   0.9352468800000002    0.9859900899999999    0.3745318352059925 C
   0.9480608199999997    0.9993165900000001    0.3745318352059925 C
   0.0259695900000000    0.0003417100000000    0.3745318352059925 C
   0.0387835300000000    0.0136682000000000    0.3745318352059925 C
   0.0515974700000000    0.0269947000000000    0.3745318352059925 C
   0.0644114100000000    0.0403212000000000    0.3745318352059925 C
   0.0772253500000000    0.0536477000000000    0.3745318352059925 C
   0.0900393000000000    0.0669742000000000    0.3745318352059925 C
   0.1028532400000000    0.0803007000000000    0.3745318352059925 C
   0.1156671800000000    0.0936272000000000    0.3745318352059925 C
   0.1284811200000000    0.1069537000000000    0.3745318352059925 C
   0.1412950600000000    0.1202802000000000    0.3745318352059925 C
   0.1541089999999999    0.1336067000000000    0.3745318352059925 C
   0.1669229500000000    0.1469332000000000    0.3745318352059925 C
   0.1797368900000000    0.1602597000000000    0.3745318352059925 C
   0.1925508300000000    0.1735862000000000    0.3745318352059925 C
   0.2053647700000000    0.1869126900000000    0.3745318352059925 C
   0.2181787100000000    0.2002391900000000    0.3745318352059925 C
   0.2309926499999999    0.2135656900000000    0.3745318352059925 C
   0.2438065900000000    0.2268921900000000    0.3745318352059925 C
   0.2566205400000001    0.2402186900000000    0.3745318352059925 C
   0.2694344800000000    0.2535451900000000    0.3745318352059925 C
   0.2822484200000000    0.2668716900000000    0.3745318352059925 C
   0.2950623600000001    0.2801981900000000    0.3745318352059925 C
   0.3078762999999999    0.2935246900000000    0.3745318352059925 C
   0.3206902400000000    0.3068511900000000    0.3745318352059925 C
   0.3335041899999999    0.3201776900000000    0.3745318352059925 C
   0.3463181300000000    0.3335041900000000    0.3745318352059925 C
   0.3591320699999999    0.3468306900000000    0.3745318352059925 C
   0.3719460099999999    0.3601571800000000    0.3745318352059925 C
   0.3847599500000001    0.3734836799999999    0.3745318352059925 C
   0.3975738899999998    0.3868101800000000    0.3745318352059925 C
   0.4103878400000001    0.4001366800000000    0.3745318352059925 C
   0.4232017799999999    0.4134631800000000    0.3745318352059925 C
   0.4360157200000001    0.4267896800000001    0.3745318352059925 C
   0.4488296599999999    0.4401161800000001    0.3745318352059925 C
   0.4616436000000000    0.4534426800000000    0.3745318352059925 C
   0.4744575400000000    0.4667691800000000    0.3745318352059925 C
   0.4872714800000000    0.4800956800000000    0.3745318352059925 C
   0.5000854300000001    0.4934221800000000    0.3745318352059925 C
   0.5128993700000000    0.5067486800000000    0.3745318352059925 C
   0.5257133100000000    0.5200751800000000    0.3745318352059925 C
   0.5385272499999998    0.5334016700000000    0.3745318352059925 C
   0.5513411899999999    0.5467281700000000    0.3745318352059925 C
   0.5641551299999999    0.5600546700000000    0.3745318352059925 C
   0.5769690799999999    0.5733811700000000    0.3745318352059925 C
   0.5897830200000002    0.5867076700000000    0.3745318352059925 C
   0.6025969599999998    0.6000341700000000    0.3745318352059925 C
   0.6154109000000001    0.6133606700000002    0.3745318352059925 C
   0.6282248399999999    0.6266871700000000    0.3745318352059925 C
   0.6410387800000000    0.6400136700000000    0.3745318352059925 C
   0.6538527300000000    0.6533401700000000    0.3745318352059925 C
   0.6666666666666664    0.6666666666666667    0.3745318352059925 C
   0.6794806099999998    0.6799931700000001    0.3745318352059925 C
   0.6922945499999998    0.6933196700000001    0.3745318352059925 C
   0.7051084899999998    0.7066461600000000    0.3745318352059925 C
   0.7179224300000001    0.7199726599999999    0.3745318352059925 C
   0.7307363699999996    0.7332991600000001    0.3745318352059925 C
   0.7435503200000002    0.7466256600000000    0.3745318352059925 C
   0.7563642599999998    0.7599521600000001    0.3745318352059925 C
   0.7691781999999998    0.7732786600000000    0.3745318352059925 C
   0.7819921399999998    0.7866051600000001    0.3745318352059925 C
   0.7948060800000003    0.7999316600000000    0.3745318352059925 C
   0.8076200200000000    0.8132581600000000    0.3745318352059925 C
   0.8204339699999996    0.8265846600000001    0.3745318352059925 C
   0.8332479100000000    0.8399111600000000    0.3745318352059925 C
   0.8460618499999999    0.8532376600000001    0.3745318352059925 C
   0.8588757900000002    0.8665641600000000    0.3745318352059925 C
   0.8716897299999998    0.8798906500000000    0.3745318352059925 C
   0.8845036699999997    0.8932171499999999    0.3745318352059925 C
   0.8973176099999997    0.9065436500000000    0.3745318352059925 C
   0.9101315600000000    0.9198701499999999    0.3745318352059925 C
   0.9229454999999999    0.9331966499999998    0.3745318352059925 C
   0.9357594400000003    0.9465231499999999    0.3745318352059925 C
   0.9485733799999997    0.9598496499999999    0.3745318352059925 C
   0.9613873199999998    0.9731761500000000    0.3745318352059925 C
   0.9742012600000000    0.9865026499999999    0.3745318352059925 C
   0.9870152099999998    0.9998291500000001    0.3745318352059925 C
   0.0649239700000000    0.0008542600000000    0.3745318352059925 C
   0.0777379100000000    0.0141807600000000    0.3745318352059925 C
   0.0905518500000000    0.0275072600000000    0.3745318352059925 C
   0.1033658000000000    0.0408337600000000    0.3745318352059925 C
   0.1161797400000000    0.0541602600000000    0.3745318352059925 C
   0.1289936800000000    0.0674867600000000    0.3745318352059925 C
   0.1418076200000000    0.0808132600000000    0.3745318352059925 C
   0.1546215599999999    0.0941397600000000    0.3745318352059925 C
   0.1674355000000000    0.1074662600000000    0.3745318352059925 C
   0.1802494400000000    0.1207927600000000    0.3745318352059925 C
   0.1930633900000000    0.1341192600000000    0.3745318352059925 C
   0.2058773299999999    0.1474457500000000    0.3745318352059925 C
   0.2186912700000000    0.1607722500000000    0.3745318352059925 C
   0.2315052100000000    0.1740987500000000    0.3745318352059925 C
   0.2443191500000000    0.1874252500000000    0.3745318352059925 C
   0.2571330900000000    0.2007517500000000    0.3745318352059925 C
   0.2699470400000000    0.2140782500000000    0.3745318352059925 C
   0.2827609800000000    0.2274047500000000    0.3745318352059925 C
   0.2955749200000000    0.2407312500000000    0.3745318352059925 C
   0.3083888600000000    0.2540577500000000    0.3745318352059925 C
   0.3212028000000000    0.2673842500000000    0.3745318352059925 C
   0.3340167400000000    0.2807107500000000    0.3745318352059925 C
   0.3468306900000001    0.2940372500000000    0.3745318352059925 C
   0.3596446300000000    0.3073637500000000    0.3745318352059925 C
   0.3724585700000000    0.3206902400000000    0.3745318352059925 C
   0.3852725100000000    0.3340167399999999    0.3745318352059925 C
   0.3980864500000000    0.3473432400000000    0.3745318352059925 C
   0.4109003900000000    0.3606697400000000    0.3745318352059925 C
   0.4237143299999999    0.3739962400000000    0.3745318352059925 C
   0.4365282799999999    0.3873227400000000    0.3745318352059925 C
   0.4493422199999998    0.4006492400000000    0.3745318352059925 C
   0.4621561600000000    0.4139757400000000    0.3745318352059925 C
   0.4749700999999998    0.4273022400000000    0.3745318352059925 C
   0.4877840399999999    0.4406287400000000    0.3745318352059925 C
   0.5005979800000000    0.4539552400000000    0.3745318352059925 C
   0.5134119300000000    0.4672817400000000    0.3745318352059925 C
   0.5262258700000000    0.4806082400000000    0.3745318352059925 C
   0.5390398099999998    0.4939347300000000    0.3745318352059925 C
   0.5518537500000000    0.5072612300000000    0.3745318352059925 C
   0.5646676900000001    0.5205877300000000    0.3745318352059925 C
   0.5774816299999999    0.5339142300000000    0.3745318352059925 C
   0.5902955700000001    0.5472407300000000    0.3745318352059925 C
   0.6031095199999997    0.5605672300000000    0.3745318352059925 C
   0.6159234599999999    0.5738937300000000    0.3745318352059925 C
   0.6287374000000000    0.5872202300000000    0.3745318352059925 C
   0.6415513399999999    0.6005467300000000    0.3745318352059925 C
   0.6543652799999999    0.6138732300000000    0.3745318352059925 C
   0.6671792200000000    0.6271997300000000    0.3745318352059925 C
   0.6799931700000003    0.6405262300000000    0.3745318352059925 C
   0.6928071100000001    0.6538527300000000    0.3745318352059925 C
   0.7056210500000000    0.6671792200000000    0.3745318352059925 C
   0.7184349900000001    0.6805057200000000    0.3745318352059925 C
   0.7312489299999998    0.6938322199999999    0.3745318352059925 C
   0.7440628699999997    0.7071587200000000    0.3745318352059925 C
   0.7568768200000001    0.7204852199999999    0.3745318352059925 C
   0.7696907599999999    0.7338117200000001    0.3745318352059925 C
   0.7825046999999999    0.7471382200000000    0.3745318352059925 C
   0.7953186400000000    0.7604647200000001    0.3745318352059925 C
   0.8081325800000000    0.7737912200000000    0.3745318352059925 C
   0.8209465199999996    0.7871177200000000    0.3745318352059925 C
   0.8337604599999998    0.8004442200000000    0.3745318352059925 C
   0.8465744099999999    0.8137707199999999    0.3745318352059925 C
   0.8593883500000000    0.8270972200000001    0.3745318352059925 C
   0.8722022900000002    0.8404237100000002    0.3745318352059925 C
   0.8850162300000000    0.8537502100000000    0.3745318352059925 C
   0.8978301700000001    0.8670767099999999    0.3745318352059925 C
   0.9106441100000000    0.8804032100000000    0.3745318352059925 C
   0.9234580599999999    0.8937297099999999    0.3745318352059925 C
   0.9362720000000000    0.9070562100000000    0.3745318352059925 C
   0.9490859399999999    0.9203827099999999    0.3745318352059925 C
   0.9618998799999998    0.9337092099999998    0.3745318352059925 C
   0.9747138199999997    0.9470357100000000    0.3745318352059925 C
   0.9875277600000001    0.9603622099999999    0.3745318352059925 C
   0.0003417100000000    0.9736887100000000    0.3745318352059925 C
   0.0131556500000000    0.9870152099999999    0.3745318352059925 C
   0.1038783500000000    0.0013668200000000    0.3745318352059925 C
   0.1166922900000000    0.0146933200000000    0.3745318352059925 C
   0.1295062399999999    0.0280198200000000    0.3745318352059925 C
   0.1423201800000000    0.0413463200000000    0.3745318352059925 C
   0.1551341200000000    0.0546728200000000    0.3745318352059925 C
   0.1679480600000000    0.0679993200000000    0.3745318352059925 C
   0.1807620000000000    0.0813258200000000    0.3745318352059925 C
   0.1935759400000000    0.0946523200000000    0.3745318352059925 C
   0.2063898899999999    0.1079788100000000    0.3745318352059925 C
   0.2192038299999999    0.1213053100000000    0.3745318352059925 C
   0.2320177700000001    0.1346318100000000    0.3745318352059925 C
   0.2448317099999999    0.1479583100000000    0.3745318352059925 C
   0.2576456499999999    0.1612848100000000    0.3745318352059925 C
   0.2704595900000000    0.1746113100000000    0.3745318352059925 C
   0.2832735300000000    0.1879378100000000    0.3745318352059925 C
   0.2960874800000000    0.2012643100000000    0.3745318352059925 C
   0.3089014199999999    0.2145908100000000    0.3745318352059925 C
   0.3217153599999999    0.2279173100000000    0.3745318352059925 C
   0.3345293000000000    0.2412438100000000    0.3745318352059925 C
   0.3473432400000000    0.2545703100000000    0.3745318352059925 C
   0.3601571800000000    0.2678968100000000    0.3745318352059925 C
   0.3729711300000000    0.2812233000000000    0.3745318352059925 C
   0.3857850699999998    0.2945498000000000    0.3745318352059925 C
   0.3985990100000000    0.3078763000000000    0.3745318352059925 C
   0.4114129500000000    0.3212028000000001    0.3745318352059925 C
   0.4242268900000001    0.3345292999999999    0.3745318352059925 C
   0.4370408300000000    0.3478557999999999    0.3745318352059925 C
   0.4498547800000001    0.3611823000000000    0.3745318352059925 C
   0.4626687199999999    0.3745088000000000    0.3745318352059925 C
   0.4754826600000000    0.3878352999999999    0.3745318352059925 C
   0.4882966000000000    0.4011618000000000    0.3745318352059925 C
   0.5011105400000000    0.4144883000000000    0.3745318352059925 C
   0.5139244800000000    0.4278148000000000    0.3745318352059925 C
   0.5267384200000000    0.4411413000000000    0.3745318352059925 C
   0.5395523700000000    0.4544677900000000    0.3745318352059925 C
   0.5523663100000000    0.4677942900000000    0.3745318352059925 C
   0.5651802499999999    0.4811207900000000    0.3745318352059925 C
   0.5779941900000000    0.4944472900000000    0.3745318352059925 C
   0.5908081299999999    0.5077737900000000    0.3745318352059925 C
   0.6036220699999999    0.5211002900000000    0.3745318352059925 C
   0.6164360199999999    0.5344267900000000    0.3745318352059925 C
   0.6292499600000000    0.5477532899999999    0.3745318352059925 C
   0.6420639000000000    0.5610797900000000    0.3745318352059925 C
   0.6548778400000000    0.5744062900000000    0.3745318352059925 C
   0.6676917799999997    0.5877327900000000    0.3745318352059925 C
   0.6805057199999999    0.6010592900000000    0.3745318352059925 C
   0.6933196700000002    0.6143857900000000    0.3745318352059925 C
   0.7061336099999999    0.6277122800000000    0.3745318352059925 C
   0.7189475499999998    0.6410387800000000    0.3745318352059925 C
   0.7317614899999999    0.6543652800000000    0.3745318352059925 C
   0.7445754300000001    0.6676917800000000    0.3745318352059925 C
   0.7573893699999998    0.6810182800000000    0.3745318352059925 C
   0.7702033100000001    0.6943447799999999    0.3745318352059925 C
   0.7830172599999998    0.7076712800000000    0.3745318352059925 C
   0.7958311999999998    0.7209977799999999    0.3745318352059925 C
   0.8086451399999999    0.7343242800000001    0.3745318352059925 C
   0.8214590800000001    0.7476507800000000    0.3745318352059925 C
   0.8342730199999997    0.7609772800000000    0.3745318352059925 C
   0.8470869600000002    0.7743037800000000    0.3745318352059925 C
   0.8599009099999999    0.7876302800000000    0.3745318352059925 C
   0.8727148500000002    0.8009567700000000    0.3745318352059925 C
   0.8855287899999998    0.8142832700000001    0.3745318352059925 C
   0.8983427299999998    0.8276097700000000    0.3745318352059925 C
   0.9111566699999999    0.8409362700000002    0.3745318352059925 C
   0.9239706100000001    0.8542627699999999    0.3745318352059925 C
   0.9367845499999998    0.8675892699999999    0.3745318352059925 C
   0.9495984999999999    0.8809157700000000    0.3745318352059925 C
   0.9624124399999998    0.8942422699999999    0.3745318352059925 C
   0.9752263799999997    0.9075687700000000    0.3745318352059925 C
   0.9880403199999999    0.9208952699999999    0.3745318352059925 C
   0.0008542600000000    0.9342217699999998    0.3745318352059925 C
   0.0136682000000000    0.9475482700000000    0.3745318352059925 C
   0.1428327400000000    0.0018793800000000    0.3745318352059925 C
   0.1556466800000000    0.0152058800000000    0.3745318352059925 C
   0.1684606199999999    0.0285323800000000    0.3745318352059925 C
   0.1812745600000000    0.0418588800000000    0.3745318352059925 C
   0.1940885000000000    0.0551853800000000    0.3745318352059925 C
   0.2069024400000000    0.0685118700000000    0.3745318352059925 C
   0.2197163800000000    0.0818383700000000    0.3745318352059925 C
   0.2325303300000000    0.0951648700000000    0.3745318352059925 C
   0.2453442700000000    0.1084913700000000    0.3745318352059925 C
   0.2581582100000000    0.1218178700000000    0.3745318352059925 C
   0.2709721500000001    0.1351443700000000    0.3745318352059925 C
   0.2837860900000000    0.1484708700000000    0.3745318352059925 C
   0.2966000300000000    0.1617973700000000    0.3745318352059925 C
   0.3094139800000000    0.1751238700000000    0.3745318352059925 C
   0.3222279200000000    0.1884503700000000    0.3745318352059925 C
   0.3350418599999999    0.2017768700000000    0.3745318352059925 C
   0.3478557999999999    0.2151033700000000    0.3745318352059925 C
   0.3606697399999999    0.2284298700000000    0.3745318352059925 C
   0.3734836799999999    0.2417563600000000    0.3745318352059925 C
   0.3862976299999999    0.2550828600000000    0.3745318352059925 C
   0.3991115700000000    0.2684093600000000    0.3745318352059925 C
   0.4119255100000001    0.2817358600000000    0.3745318352059925 C
   0.4247394500000000    0.2950623600000000    0.3745318352059925 C
   0.4375533900000000    0.3083888600000000    0.3745318352059925 C
   0.4503673300000000    0.3217153600000000    0.3745318352059925 C
   0.4631812700000000    0.3350418600000000    0.3745318352059925 C
   0.4759952200000000    0.3483683600000000    0.3745318352059925 C
   0.4888091599999999    0.3616948600000000    0.3745318352059925 C
   0.5016231000000000    0.3750213600000000    0.3745318352059925 C
   0.5144370399999999    0.3883478599999999    0.3745318352059925 C
   0.5272509800000000    0.4016743600000000    0.3745318352059925 C
   0.5400649199999999    0.4150008499999999    0.3745318352059925 C
   0.5528788699999999    0.4283273499999999    0.3745318352059925 C
   0.5656928099999999    0.4416538500000000    0.3745318352059925 C
   0.5785067500000000    0.4549803500000000    0.3745318352059925 C
   0.5913206899999999    0.4683068500000001    0.3745318352059925 C
   0.6041346300000000    0.4816333500000001    0.3745318352059925 C
   0.6169485700000001    0.4949598500000000    0.3745318352059925 C
   0.6297625100000001    0.5082863500000000    0.3745318352059925 C
   0.6425764600000000    0.5216128500000000    0.3745318352059925 C
   0.6553904000000000    0.5349393500000000    0.3745318352059925 C
   0.6682043400000000    0.5482658500000001    0.3745318352059925 C
   0.6810182800000000    0.5615923500000000    0.3745318352059925 C
   0.6938322199999999    0.5749188500000000    0.3745318352059925 C
   0.7066461599999999    0.5882453399999999    0.3745318352059925 C
   0.7194601100000000    0.6015718400000000    0.3745318352059925 C
   0.7322740499999999    0.6148983400000000    0.3745318352059925 C
   0.7450879899999998    0.6282248400000000    0.3745318352059925 C
   0.7579019299999998    0.6415513400000000    0.3745318352059925 C
   0.7707158699999997    0.6548778400000000    0.3745318352059925 C
   0.7835298100000001    0.6682043400000000    0.3745318352059925 C
   0.7963437599999997    0.6815308400000000    0.3745318352059925 C
   0.8091577000000000    0.6948573399999999    0.3745318352059925 C
   0.8219716399999998    0.7081838399999999    0.3745318352059925 C
   0.8347855799999998    0.7215103399999999    0.3745318352059925 C
   0.8475995200000001    0.7348368399999999    0.3745318352059925 C
   0.8604134599999999    0.7481633400000000    0.3745318352059925 C
   0.8732273999999998    0.7614898300000000    0.3745318352059925 C
   0.8860413499999995    0.7748163300000001    0.3745318352059925 C
   0.8988552899999998    0.7881428300000001    0.3745318352059925 C
   0.9116692300000001    0.8014693300000000    0.3745318352059925 C
   0.9244831700000000    0.8147958300000001    0.3745318352059925 C
   0.9372971099999999    0.8281223300000000    0.3745318352059925 C
   0.9501110500000001    0.8414488300000001    0.3745318352059925 C
   0.9629249999999999    0.8547753300000001    0.3745318352059925 C
   0.9757389399999999    0.8681018299999999    0.3745318352059925 C
   0.9885528800000001    0.8814283300000000    0.3745318352059925 C
   0.0013668200000000    0.8947548299999999    0.3745318352059925 C
   0.0141807600000000    0.9080813299999999    0.3745318352059925 C
   0.1817871200000000    0.0023919400000000    0.3745318352059925 C
   0.1946010600000000    0.0157184300000000    0.3745318352059925 C
   0.2074149999999999    0.0290449300000000    0.3745318352059925 C
   0.2202289400000000    0.0423714300000000    0.3745318352059925 C
   0.2330428800000000    0.0556979300000000    0.3745318352059925 C
   0.2458568300000000    0.0690244300000000    0.3745318352059925 C
   0.2586707699999999    0.0823509300000000    0.3745318352059925 C
   0.2714847100000000    0.0956774300000000    0.3745318352059925 C
   0.2842986500000000    0.1090039300000000    0.3745318352059925 C
   0.2971125900000000    0.1223304300000000    0.3745318352059925 C
   0.3099265299999999    0.1356569300000000    0.3745318352059925 C
   0.3227404699999999    0.1489834300000000    0.3745318352059925 C
   0.3355544200000000    0.1623099300000000    0.3745318352059925 C
   0.3483683599999999    0.1756364300000000    0.3745318352059925 C
   0.3611823000000001    0.1889629200000000    0.3745318352059925 C
   0.3739962399999999    0.2022894200000000    0.3745318352059925 C
   0.3868101800000000    0.2156159200000000    0.3745318352059925 C
   0.3996241200000001    0.2289424200000000    0.3745318352059925 C
   0.4124380700000000    0.2422689200000000    0.3745318352059925 C
   0.4252520100000000    0.2555954200000000    0.3745318352059925 C
   0.4380659500000000    0.2689219200000000    0.3745318352059925 C
   0.4508798900000001    0.2822484200000000    0.3745318352059925 C
   0.4636938299999999    0.2955749200000000    0.3745318352059925 C
   0.4765077699999999    0.3089014200000000    0.3745318352059925 C
   0.4893217200000001    0.3222279200000000    0.3745318352059925 C
   0.5021356600000000    0.3355544200000000    0.3745318352059925 C
   0.5149495999999999    0.3488809200000000    0.3745318352059925 C
   0.5277635400000000    0.3622074200000000    0.3745318352059925 C
   0.5405774799999999    0.3755339100000001    0.3745318352059925 C
   0.5533914200000000    0.3888604100000000    0.3745318352059925 C
   0.5662053600000000    0.4021869100000000    0.3745318352059925 C
   0.5790193100000000    0.4155134100000000    0.3745318352059925 C
   0.5918332499999999    0.4288399100000000    0.3745318352059925 C
   0.6046471900000000    0.4421664100000000    0.3745318352059925 C
   0.6174611299999999    0.4554929100000000    0.3745318352059925 C
   0.6302750700000002    0.4688194100000000    0.3745318352059925 C
   0.6430890099999998    0.4821459100000001    0.3745318352059925 C
   0.6559029599999998    0.4954724100000000    0.3745318352059925 C
   0.6687168999999997    0.5087989100000000    0.3745318352059925 C
   0.6815308400000001    0.5221254100000000    0.3745318352059925 C
   0.6943447800000000    0.5354519100000000    0.3745318352059925 C
   0.7071587200000000    0.5487784000000000    0.3745318352059925 C
   0.7199726600000000    0.5621049000000000    0.3745318352059925 C
   0.7327866099999997    0.5754314000000000    0.3745318352059925 C
   0.7456005500000000    0.5887578999999999    0.3745318352059925 C
   0.7584144900000001    0.6020844000000000    0.3745318352059925 C
   0.7712284300000000    0.6154109000000000    0.3745318352059925 C
   0.7840423700000001    0.6287374000000000    0.3745318352059925 C
   0.7968563100000000    0.6420639000000000    0.3745318352059925 C
   0.8096702500000001    0.6553904000000000    0.3745318352059925 C
   0.8224842000000000    0.6687168999999999    0.3745318352059925 C
   0.8352981399999997    0.6820433999999999    0.3745318352059925 C
   0.8481120799999999    0.6953698999999999    0.3745318352059925 C
   0.8609260199999997    0.7086963999999999    0.3745318352059925 C
   0.8737399599999999    0.7220228900000001    0.3745318352059925 C
   0.8865539000000001    0.7353493900000000    0.3745318352059925 C
   0.8993678499999996    0.7486758900000000    0.3745318352059925 C
   0.9121817900000001    0.7620023900000000    0.3745318352059925 C
   0.9249957299999999    0.7753288900000000    0.3745318352059925 C
   0.9378096700000002    0.7886553900000001    0.3745318352059925 C
   0.9506236099999998    0.8019818900000000    0.3745318352059925 C
   0.9634375500000000    0.8153083900000001    0.3745318352059925 C
   0.9762514899999999    0.8286348900000000    0.3745318352059925 C
   0.9890654399999997    0.8419613900000001    0.3745318352059925 C
   0.0018793800000001    0.8552878900000001    0.3745318352059925 C
   0.0146933200000000    0.8686143899999998    0.3745318352059925 C
   0.2207415000000000    0.0029044900000000    0.3745318352059925 C
   0.2335554400000000    0.0162309900000000    0.3745318352059925 C
   0.2463693800000000    0.0295574900000000    0.3745318352059925 C
   0.2591833200000001    0.0428839900000000    0.3745318352059925 C
   0.2719972700000000    0.0562104900000000    0.3745318352059925 C
   0.2848112100000000    0.0695369900000000    0.3745318352059925 C
   0.2976251500000000    0.0828634900000000    0.3745318352059925 C
   0.3104390899999999    0.0961899900000000    0.3745318352059925 C
   0.3232530300000000    0.1095164900000000    0.3745318352059925 C
   0.3360669700000000    0.1228429900000000    0.3745318352059925 C
   0.3488809200000000    0.1361694900000000    0.3745318352059925 C
   0.3616948600000001    0.1494959800000000    0.3745318352059925 C
   0.3745087999999999    0.1628224800000000    0.3745318352059925 C
   0.3873227400000001    0.1761489800000000    0.3745318352059925 C
   0.4001366800000000    0.1894754800000000    0.3745318352059925 C
   0.4129506199999999    0.2028019800000000    0.3745318352059925 C
   0.4257645700000000    0.2161284800000000    0.3745318352059925 C
   0.4385785100000001    0.2294549800000000    0.3745318352059925 C
   0.4513924500000000    0.2427814800000000    0.3745318352059925 C
   0.4642063900000000    0.2561079800000000    0.3745318352059925 C
   0.4770203300000000    0.2694344800000000    0.3745318352059925 C
   0.4898342699999999    0.2827609800000000    0.3745318352059925 C
   0.5026482100000000    0.2960874800000000    0.3745318352059925 C
   0.5154621600000000    0.3094139800000000    0.3745318352059925 C
   0.5282760999999999    0.3227404700000000    0.3745318352059925 C
   0.5410900400000000    0.3360669700000000    0.3745318352059925 C
   0.5539039800000000    0.3493934700000000    0.3745318352059925 C
   0.5667179199999999    0.3627199700000001    0.3745318352059925 C
   0.5795318599999999    0.3760464700000001    0.3745318352059925 C
   0.5923458100000000    0.3893729700000000    0.3745318352059925 C
   0.6051597500000000    0.4026994700000000    0.3745318352059925 C
   0.6179736900000000    0.4160259700000000    0.3745318352059925 C
   0.6307876300000000    0.4293524700000000    0.3745318352059925 C
   0.6436015699999998    0.4426789700000000    0.3745318352059925 C
   0.6564155100000000    0.4560054700000000    0.3745318352059925 C
   0.6692294500000002    0.4693319700000000    0.3745318352059925 C
   0.6820433999999997    0.4826584700000000    0.3745318352059925 C
   0.6948573400000000    0.4959849600000000    0.3745318352059925 C
   0.7076712799999999    0.5093114600000000    0.3745318352059925 C
   0.7204852200000000    0.5226379600000000    0.3745318352059925 C
   0.7332991599999999    0.5359644600000000    0.3745318352059925 C
   0.7461131000000001    0.5492909600000000    0.3745318352059925 C
   0.7589270500000002    0.5626174600000000    0.3745318352059925 C
   0.7717409899999998    0.5759439600000000    0.3745318352059925 C
   0.7845549300000000    0.5892704600000001    0.3745318352059925 C
   0.7973688700000000    0.6025969600000000    0.3745318352059925 C
   0.8101828100000001    0.6159234600000000    0.3745318352059925 C
   0.8229967499999997    0.6292499600000001    0.3745318352059925 C
   0.8358106999999998    0.6425764600000000    0.3745318352059925 C
   0.8486246399999997    0.6559029600000000    0.3745318352059925 C
   0.8614385800000000    0.6692294500000000    0.3745318352059925 C
   0.8742525199999999    0.6825559500000000    0.3745318352059925 C
   0.8870664600000000    0.6958824500000002    0.3745318352059925 C
   0.8998803999999998    0.7092089499999999    0.3745318352059925 C
   0.9126943399999998    0.7225354500000000    0.3745318352059925 C
   0.9255082900000000    0.7358619500000000    0.3745318352059925 C
   0.9383222299999998    0.7491884500000000    0.3745318352059925 C
   0.9511361699999996    0.7625149500000000    0.3745318352059925 C
   0.9639501099999999    0.7758414500000000    0.3745318352059925 C
   0.9767640499999999    0.7891679500000001    0.3745318352059925 C
   0.9895779900000000    0.8024944500000000    0.3745318352059925 C
   0.0023919400000000    0.8158209500000001    0.3745318352059925 C
   0.0152058800000000    0.8291474500000000    0.3745318352059925 C
   0.2596958800000000    0.0034170500000000    0.3745318352059925 C
   0.2725098200000000    0.0167435500000000    0.3745318352059925 C
   0.2853237700000000    0.0300700500000000    0.3745318352059925 C
   0.2981377100000000    0.0433965500000000    0.3745318352059925 C
   0.3109516500000000    0.0567230500000000    0.3745318352059925 C
   0.3237655899999999    0.0700495500000000    0.3745318352059925 C
   0.3365795300000000    0.0833760500000000    0.3745318352059925 C
   0.3493934700000000    0.0967025500000000    0.3745318352059925 C
   0.3622074199999999    0.1100290400000000    0.3745318352059925 C
   0.3750213600000000    0.1233555400000000    0.3745318352059925 C
   0.3878353000000000    0.1366820400000000    0.3745318352059925 C
   0.4006492400000000    0.1500085400000000    0.3745318352059925 C
   0.4134631799999999    0.1633350400000000    0.3745318352059925 C
   0.4262771200000000    0.1766615400000000    0.3745318352059925 C
   0.4390910600000001    0.1899880400000000    0.3745318352059925 C
   0.4519050099999998    0.2033145400000000    0.3745318352059925 C
   0.4647189500000000    0.2166410400000000    0.3745318352059925 C
   0.4775328900000000    0.2299675400000000    0.3745318352059925 C
   0.4903468300000000    0.2432940400000000    0.3745318352059925 C
   0.5031607700000000    0.2566205400000000    0.3745318352059925 C
   0.5159747099999997    0.2699470400000000    0.3745318352059925 C
   0.5287886600000000    0.2832735300000000    0.3745318352059925 C
   0.5416026000000000    0.2966000300000000    0.3745318352059925 C
   0.5544165399999998    0.3099265299999999    0.3745318352059925 C
   0.5672304800000000    0.3232530299999999    0.3745318352059925 C
   0.5800444199999998    0.3365795300000000    0.3745318352059925 C
   0.5928583599999999    0.3499060300000000    0.3745318352059925 C
   0.6056723000000001    0.3632325300000001    0.3745318352059925 C
   0.6184862499999999    0.3765590300000001    0.3745318352059925 C
   0.6313001899999999    0.3898855299999999    0.3745318352059925 C
   0.6441141300000000    0.4032120299999999    0.3745318352059925 C
   0.6569280699999999    0.4165385300000000    0.3745318352059925 C
   0.6697420100000000    0.4298650300000000    0.3745318352059925 C
   0.6825559500000000    0.4431915299999999    0.3745318352059925 C
   0.6953699000000000    0.4565180200000001    0.3745318352059925 C
   0.7081838400000000    0.4698445199999999    0.3745318352059925 C
   0.7209977800000000    0.4831710200000000    0.3745318352059925 C
   0.7338117199999999    0.4964975200000000    0.3745318352059925 C
   0.7466256600000000    0.5098240200000000    0.3745318352059925 C
   0.7594396000000000    0.5231505200000000    0.3745318352059925 C
   0.7722535499999998    0.5364770200000000    0.3745318352059925 C
   0.7850674899999998    0.5498035200000000    0.3745318352059925 C
   0.7978814300000001    0.5631300200000000    0.3745318352059925 C
   0.8106953700000000    0.5764565200000000    0.3745318352059925 C
   0.8235093099999999    0.5897830200000000    0.3745318352059925 C
   0.8363232500000001    0.6031095200000000    0.3745318352059925 C
   0.8491371900000000    0.6164360200000000    0.3745318352059925 C
   0.8619511399999999    0.6297625100000001    0.3745318352059925 C
   0.8747650799999999    0.6430890100000000    0.3745318352059925 C
   0.8875790200000002    0.6564155100000000    0.3745318352059925 C
   0.9003929600000001    0.6697420100000000    0.3745318352059925 C
   0.9132068999999998    0.6830685100000000    0.3745318352059925 C
   0.9260208399999997    0.6963950100000001    0.3745318352059925 C
   0.9388347900000000    0.7097215100000001    0.3745318352059925 C
   0.9516487299999999    0.7230480100000000    0.3745318352059925 C
   0.9644626699999997    0.7363745100000000    0.3745318352059925 C
   0.9772766100000000    0.7497010100000000    0.3745318352059925 C
   0.9900905500000000    0.7630275100000000    0.3745318352059925 C
   0.0029044900000000    0.7763540100000000    0.3745318352059925 C
   0.0157184300000000    0.7896805099999999    0.3745318352059925 C
   0.2986502599999999    0.0039296100000000    0.3745318352059925 C
   0.3114642100000000    0.0172561100000000    0.3745318352059925 C
   0.3242781500000000    0.0305826100000000    0.3745318352059925 C
   0.3370920900000000    0.0439091100000000    0.3745318352059925 C
   0.3499060300000000    0.0572356100000000    0.3745318352059925 C
   0.3627199699999999    0.0705621000000000    0.3745318352059925 C
   0.3755339099999999    0.0838886000000000    0.3745318352059925 C
   0.3883478600000000    0.0972151000000000    0.3745318352059925 C
   0.4011618000000000    0.1105416000000000    0.3745318352059925 C
   0.4139757400000000    0.1238681000000000    0.3745318352059925 C
   0.4267896799999999    0.1371946000000000    0.3745318352059925 C
   0.4396036200000000    0.1505211000000000    0.3745318352059925 C
   0.4524175600000000    0.1638476000000000    0.3745318352059925 C
   0.4652315100000001    0.1771741000000000    0.3745318352059925 C
   0.4780454500000000    0.1905006000000000    0.3745318352059925 C
   0.4908593900000000    0.2038271000000000    0.3745318352059925 C
   0.5036733300000000    0.2171536000000000    0.3745318352059925 C
   0.5164872699999999    0.2304801000000000    0.3745318352059925 C
   0.5293012100000001    0.2438065900000000    0.3745318352059925 C
   0.5421151500000000    0.2571330900000000    0.3745318352059925 C
   0.5549291000000000    0.2704595900000000    0.3745318352059925 C
   0.5677430400000000    0.2837860900000000    0.3745318352059925 C
   0.5805569799999999    0.2971125900000000    0.3745318352059925 C
   0.5933709199999999    0.3104390900000000    0.3745318352059925 C
   0.6061848600000000    0.3237655900000000    0.3745318352059925 C
   0.6189987999999998    0.3370920900000000    0.3745318352059925 C
   0.6318127499999999    0.3504185900000000    0.3745318352059925 C
   0.6446266899999998    0.3637450900000000    0.3745318352059925 C
   0.6574406299999997    0.3770715900000000    0.3745318352059925 C
   0.6702545700000000    0.3903980899999999    0.3745318352059925 C
   0.6830685100000001    0.4037245900000000    0.3745318352059925 C
   0.6958824500000000    0.4170510800000000    0.3745318352059925 C
   0.7086964000000000    0.4303775800000000    0.3745318352059925 C
   0.7215103399999998    0.4437040800000001    0.3745318352059925 C
   0.7343242800000001    0.4570305800000001    0.3745318352059925 C
   0.7471382200000000    0.4703570799999999    0.3745318352059925 C
   0.7599521600000002    0.4836835799999999    0.3745318352059925 C
   0.7727661000000001    0.4970100800000000    0.3745318352059925 C
   0.7855800400000000    0.5103365800000000    0.3745318352059925 C
   0.7983939900000001    0.5236630799999999    0.3745318352059925 C
   0.8112079299999998    0.5369895800000000    0.3745318352059925 C
   0.8240218700000002    0.5503160800000000    0.3745318352059925 C
   0.8368358099999996    0.5636425800000000    0.3745318352059925 C
   0.8496497499999998    0.5769690800000000    0.3745318352059925 C
   0.8624636899999998    0.5902955700000000    0.3745318352059925 C
   0.8752776400000001    0.6036220700000000    0.3745318352059925 C
   0.8880915800000000    0.6169485700000000    0.3745318352059925 C
   0.9009055200000000    0.6302750700000002    0.3745318352059925 C
   0.9137194599999998    0.6436015700000000    0.3745318352059925 C
   0.9265333999999997    0.6569280700000000    0.3745318352059925 C
   0.9393473400000001    0.6702545700000000    0.3745318352059925 C
   0.9521612800000002    0.6835810700000000    0.3745318352059925 C
   0.9649752299999999    0.6969075700000001    0.3745318352059925 C
   0.9777891700000000    0.7102340700000001    0.3745318352059925 C
   0.9906031099999999    0.7235605700000000    0.3745318352059925 C
   0.0034170500000000    0.7368870700000001    0.3745318352059925 C
   0.0162309900000000    0.7502135700000000    0.3745318352059925 C
   0.3376046500000000    0.0044421700000000    0.3745318352059925 C
   0.3504185899999999    0.0177686700000000    0.3745318352059925 C
   0.3632325300000000    0.0310951600000000    0.3745318352059925 C
   0.3760464700000000    0.0444216600000000    0.3745318352059925 C
   0.3888604100000000    0.0577481600000000    0.3745318352059925 C
   0.4016743600000000    0.0710746600000000    0.3745318352059925 C
   0.4144883000000000    0.0844011600000000    0.3745318352059925 C
   0.4273022399999999    0.0977276600000000    0.3745318352059925 C
   0.4401161800000000    0.1110541600000000    0.3745318352059925 C
   0.4529301199999998    0.1243806600000000    0.3745318352059925 C
   0.4657440600000000    0.1377071600000000    0.3745318352059925 C
   0.4785580000000000    0.1510336600000000    0.3745318352059925 C
   0.4913719500000000    0.1643601600000000    0.3745318352059925 C
   0.5041858900000001    0.1776866600000000    0.3745318352059925 C
   0.5169998300000000    0.1910131600000000    0.3745318352059925 C
   0.5298137699999999    0.2043396500000000    0.3745318352059925 C
   0.5426277099999999    0.2176661500000000    0.3745318352059925 C
   0.5554416499999999    0.2309926500000000    0.3745318352059925 C
   0.5682555999999999    0.2443191500000000    0.3745318352059925 C
   0.5810695399999999    0.2576456500000000    0.3745318352059925 C
   0.5938834800000001    0.2709721500000000    0.3745318352059925 C
   0.6066974199999999    0.2842986500000000    0.3745318352059925 C
   0.6195113600000000    0.2976251500000000    0.3745318352059925 C
   0.6323252999999999    0.3109516500000000    0.3745318352059925 C
   0.6451392400000000    0.3242781500000000    0.3745318352059925 C
   0.6579531900000000    0.3376046500000000    0.3745318352059925 C
   0.6707671300000000    0.3509311500000001    0.3745318352059925 C
   0.6835810699999999    0.3642576500000000    0.3745318352059925 C
   0.6963950099999998    0.3775841400000000    0.3745318352059925 C
   0.7092089499999997    0.3909106400000000    0.3745318352059925 C
   0.7220228899999999    0.4042371400000000    0.3745318352059925 C
   0.7348368399999999    0.4175636400000000    0.3745318352059925 C
   0.7476507799999998    0.4308901400000000    0.3745318352059925 C
   0.7604647199999999    0.4442166400000000    0.3745318352059925 C
   0.7732786600000000    0.4575431400000000    0.3745318352059925 C
   0.7860926000000003    0.4708696399999999    0.3745318352059925 C
   0.7989065399999999    0.4841961400000000    0.3745318352059925 C
   0.8117204900000000    0.4975226400000000    0.3745318352059925 C
   0.8245344300000002    0.5108491400000000    0.3745318352059925 C
   0.8373483700000001    0.5241756400000001    0.3745318352059925 C
   0.8501623100000000    0.5375021400000000    0.3745318352059925 C
   0.8629762499999999    0.5508286300000000    0.3745318352059925 C
   0.8757901900000001    0.5641551299999999    0.3745318352059925 C
   0.8886041300000000    0.5774816300000000    0.3745318352059925 C
   0.9014180800000000    0.5908081300000001    0.3745318352059925 C
   0.9142320199999999    0.6041346300000000    0.3745318352059925 C
   0.9270459599999998    0.6174611300000000    0.3745318352059925 C
   0.9398598999999997    0.6307876300000000    0.3745318352059925 C
   0.9526738399999998    0.6441141300000000    0.3745318352059925 C
   0.9654877799999997    0.6574406300000000    0.3745318352059925 C
   0.9783017300000000    0.6707671300000000    0.3745318352059925 C
   0.9911156699999999    0.6840936300000000    0.3745318352059925 C
   0.0039296100000000    0.6974201300000001    0.3745318352059925 C
   0.0167435500000000    0.7107466300000000    0.3745318352059925 C
   0.3765590300000000    0.0049547200000000    0.3745318352059925 C
   0.3893729700000000    0.0182812200000000    0.3745318352059925 C
   0.4021869100000000    0.0316077200000000    0.3745318352059925 C
   0.4150008499999999    0.0449342200000000    0.3745318352059925 C
   0.4278147999999999    0.0582607200000000    0.3745318352059925 C
   0.4406287400000001    0.0715872200000000    0.3745318352059925 C
   0.4534426800000000    0.0849137200000000    0.3745318352059925 C
   0.4662566200000001    0.0982402200000000    0.3745318352059925 C
   0.4790705600000000    0.1115667200000000    0.3745318352059925 C
   0.4918845000000000    0.1248932200000000    0.3745318352059925 C
   0.5046984500000000    0.1382197200000000    0.3745318352059925 C
   0.5175123900000000    0.1515462200000000    0.3745318352059925 C
   0.5303263300000000    0.1648727100000000    0.3745318352059925 C
   0.5431402700000000    0.1781992100000000    0.3745318352059925 C
   0.5559542099999999    0.1915257100000000    0.3745318352059925 C
   0.5687681499999999    0.2048522100000000    0.3745318352059925 C
   0.5815820900000002    0.2181787100000000    0.3745318352059925 C
   0.5943960399999999    0.2315052100000000    0.3745318352059925 C
   0.6072099799999999    0.2448317100000000    0.3745318352059925 C
   0.6200239200000001    0.2581582100000000    0.3745318352059925 C
   0.6328378600000000    0.2714847100000000    0.3745318352059925 C
   0.6456518000000000    0.2848112100000000    0.3745318352059925 C
   0.6584657399999999    0.2981377100000000    0.3745318352059925 C
   0.6712796900000001    0.3114642100000000    0.3745318352059925 C
   0.6840936299999999    0.3247907100000000    0.3745318352059925 C
   0.6969075699999998    0.3381172000000000    0.3745318352059925 C
   0.7097215100000001    0.3514437000000000    0.3745318352059925 C
   0.7225354499999997    0.3647702000000000    0.3745318352059925 C
   0.7353493899999999    0.3780967000000000    0.3745318352059925 C
   0.7481633400000000    0.3914232000000000    0.3745318352059925 C
   0.7609772800000000    0.4047497000000000    0.3745318352059925 C
   0.7737912199999999    0.4180762000000001    0.3745318352059925 C
   0.7866051599999999    0.4314027000000000    0.3745318352059925 C
   0.7994191000000000    0.4447292000000000    0.3745318352059925 C
   0.8122330400000000    0.4580557000000000    0.3745318352059925 C
   0.8250469800000000    0.4713822000000000    0.3745318352059925 C
   0.8378609299999998    0.4847087000000000    0.3745318352059925 C
   0.8506748700000000    0.4980352000000000    0.3745318352059925 C
   0.8634888100000001    0.5113616900000000    0.3745318352059925 C
   0.8763027500000000    0.5246881900000000    0.3745318352059925 C
   0.8891166900000002    0.5380146900000000    0.3745318352059925 C
   0.9019306299999998    0.5513411900000000    0.3745318352059925 C
   0.9147445799999999    0.5646676900000001    0.3745318352059925 C
   0.9275585199999998    0.5779941900000000    0.3745318352059925 C
   0.9403724599999997    0.5913206900000000    0.3745318352059925 C
   0.9531864000000001    0.6046471900000000    0.3745318352059925 C
   0.9660003399999998    0.6179736900000000    0.3745318352059925 C
   0.9788142799999997    0.6313001900000000    0.3745318352059925 C
   0.9916282199999997    0.6446266899999999    0.3745318352059925 C
   0.0044421700000001    0.6579531900000000    0.3745318352059925 C
   0.0172561100000000    0.6712796900000000    0.3745318352059925 C
   0.4155134100000000    0.0054672800000000    0.3745318352059925 C
   0.4283273500000000    0.0187937800000000    0.3745318352059925 C
   0.4411413000000000    0.0321202800000000    0.3745318352059925 C
   0.4539552399999999    0.0454467800000000    0.3745318352059925 C
   0.4667691799999999    0.0587732800000000    0.3745318352059925 C
   0.4795831199999999    0.0720997800000000    0.3745318352059925 C
   0.4923970600000000    0.0854262800000000    0.3745318352059925 C
   0.5052109999999997    0.0987527800000000    0.3745318352059925 C
   0.5180249399999998    0.1120792800000000    0.3745318352059925 C
   0.5308388900000001    0.1254057700000000    0.3745318352059925 C
   0.5436528299999999    0.1387322700000000    0.3745318352059925 C
   0.5564667700000000    0.1520587700000000    0.3745318352059925 C
   0.5692807099999999    0.1653852700000000    0.3745318352059925 C
   0.5820946499999999    0.1787117700000000    0.3745318352059925 C
   0.5949085899999998    0.1920382700000000    0.3745318352059925 C
   0.6077225399999999    0.2053647700000000    0.3745318352059925 C
   0.6205364799999998    0.2186912700000000    0.3745318352059925 C
   0.6333504200000000    0.2320177700000000    0.3745318352059925 C
   0.6461643600000000    0.2453442700000000    0.3745318352059925 C
   0.6589782999999999    0.2586707700000000    0.3745318352059925 C
   0.6717922399999999    0.2719972700000000    0.3745318352059925 C
   0.6846061800000000    0.2853237700000000    0.3745318352059925 C
   0.6974201299999999    0.2986502600000000    0.3745318352059925 C
   0.7102340699999999    0.3119767600000000    0.3745318352059925 C
   0.7230480099999999    0.3253032600000000    0.3745318352059925 C
   0.7358619499999999    0.3386297600000000    0.3745318352059925 C
   0.7486758900000001    0.3519562600000000    0.3745318352059925 C
   0.7614898299999999    0.3652827600000000    0.3745318352059925 C
   0.7743037799999999    0.3786092600000000    0.3745318352059925 C
   0.7871177200000000    0.3919357600000000    0.3745318352059925 C
   0.7999316600000000    0.4052622600000000    0.3745318352059925 C
   0.8127455999999997    0.4185887600000001    0.3745318352059925 C
   0.8255595400000001    0.4319152600000001    0.3745318352059925 C
   0.8383734800000001    0.4452417599999999    0.3745318352059925 C
   0.8511874300000002    0.4585682599999999    0.3745318352059925 C
   0.8640013700000001    0.4718947500000000    0.3745318352059925 C
   0.8768153100000000    0.4852212500000000    0.3745318352059925 C
   0.8896292500000001    0.4985477500000001    0.3745318352059925 C
   0.9024431899999996    0.5118742500000000    0.3745318352059925 C
   0.9152571299999998    0.5252007500000000    0.3745318352059925 C
   0.9280710700000001    0.5385272500000000    0.3745318352059925 C
   0.9408850200000000    0.5518537500000000    0.3745318352059925 C
   0.9536989600000001    0.5651802500000001    0.3745318352059925 C
   0.9665129000000000    0.5785067500000000    0.3745318352059925 C
   0.9793268399999997    0.5918332500000000    0.3745318352059925 C
   0.9921407799999998    0.6051597500000000    0.3745318352059925 C
   0.0049547200000000    0.6184862500000000    0.3745318352059925 C
   0.0177686700000000    0.6318127500000000    0.3745318352059925 C
   0.4544677900000000    0.0059798400000000    0.3745318352059925 C
   0.4672817400000000    0.0193063400000000    0.3745318352059925 C
   0.4800956800000000    0.0326328400000000    0.3745318352059925 C
   0.4929096199999999    0.0459593400000000    0.3745318352059925 C
   0.5057235599999998    0.0592858400000000    0.3745318352059925 C
   0.5185374999999999    0.0726123400000000    0.3745318352059925 C
   0.5313514400000000    0.0859388300000000    0.3745318352059925 C
   0.5441653900000000    0.0992653300000000    0.3745318352059925 C
   0.5569793300000001    0.1125918300000000    0.3745318352059925 C
   0.5697932699999999    0.1259183300000000    0.3745318352059925 C
   0.5826072100000000    0.1392448300000000    0.3745318352059925 C
   0.5954211500000000    0.1525713300000000    0.3745318352059925 C
   0.6082350900000000    0.1658978300000000    0.3745318352059925 C
   0.6210490300000000    0.1792243300000000    0.3745318352059925 C
   0.6338629800000000    0.1925508300000000    0.3745318352059925 C
   0.6466769199999998    0.2058773300000000    0.3745318352059925 C
   0.6594908600000001    0.2192038300000000    0.3745318352059925 C
   0.6723048000000000    0.2325303300000000    0.3745318352059925 C
   0.6851187399999999    0.2458568300000000    0.3745318352059925 C
   0.6979326799999999    0.2591833200000000    0.3745318352059925 C
   0.7107466300000002    0.2725098200000000    0.3745318352059925 C
   0.7235605700000000    0.2858363200000000    0.3745318352059925 C
   0.7363745099999999    0.2991628200000000    0.3745318352059925 C
   0.7491884499999999    0.3124893200000000    0.3745318352059925 C
   0.7620023899999998    0.3258158200000000    0.3745318352059925 C
   0.7748163300000002    0.3391423199999999    0.3745318352059925 C
   0.7876302800000000    0.3524688200000000    0.3745318352059925 C
   0.8004442199999999    0.3657953200000000    0.3745318352059925 C
   0.8132581599999997    0.3791218200000000    0.3745318352059925 C
   0.8260721000000001    0.3924483200000001    0.3745318352059925 C
   0.8388860399999998    0.4057748200000000    0.3745318352059925 C
   0.8516999800000001    0.4191013200000000    0.3745318352059925 C
   0.8645139200000000    0.4324278100000000    0.3745318352059925 C
   0.8773278700000000    0.4457543100000000    0.3745318352059925 C
   0.8901418100000001    0.4590808100000000    0.3745318352059925 C
   0.9029557500000001    0.4724073100000000    0.3745318352059925 C
   0.9157696900000000    0.4857338100000000    0.3745318352059925 C
   0.9285836300000001    0.4990603100000001    0.3745318352059925 C
   0.9413975699999998    0.5123868100000000    0.3745318352059925 C
   0.9542115199999999    0.5257133100000000    0.3745318352059925 C
   0.9670254600000000    0.5390398100000000    0.3745318352059925 C
   0.9798393999999999    0.5523663100000000    0.3745318352059925 C
   0.9926533399999998    0.5656928100000000    0.3745318352059925 C
   0.0054672799999999    0.5790193100000000    0.3745318352059925 C
   0.0182812199999999    0.5923458100000000    0.3745318352059925 C
   0.4934221800000000    0.0064924000000000    0.3745318352059925 C
   0.5062361200000000    0.0198189000000000    0.3745318352059925 C
   0.5190500600000000    0.0331454000000000    0.3745318352059925 C
   0.5318639999999999    0.0464718900000000    0.3745318352059925 C
   0.5446779399999999    0.0597983900000000    0.3745318352059925 C
   0.5574918799999999    0.0731248900000000    0.3745318352059925 C
   0.5703058299999999    0.0864513900000000    0.3745318352059925 C
   0.5831197700000000    0.0997778900000000    0.3745318352059925 C
   0.5959337099999999    0.1131043900000000    0.3745318352059925 C
   0.6087476500000000    0.1264308900000000    0.3745318352059925 C
   0.6215615900000001    0.1397573900000000    0.3745318352059925 C
   0.6343755300000000    0.1530838900000000    0.3745318352059925 C
   0.6471894799999999    0.1664103900000000    0.3745318352059925 C
   0.6600034199999999    0.1797368900000000    0.3745318352059925 C
   0.6728173599999999    0.1930633900000000    0.3745318352059925 C
   0.6856313000000001    0.2063898900000000    0.3745318352059925 C
   0.6984452399999999    0.2197163800000000    0.3745318352059925 C
   0.7112591800000000    0.2330428800000000    0.3745318352059925 C
   0.7240731199999998    0.2463693800000000    0.3745318352059925 C
   0.7368870700000002    0.2596958800000000    0.3745318352059925 C
   0.7497010100000000    0.2730223800000000    0.3745318352059925 C
   0.7625149500000000    0.2863488800000000    0.3745318352059925 C
   0.7753288899999998    0.2996753800000000    0.3745318352059925 C
   0.7881428299999998    0.3130018800000000    0.3745318352059925 C
   0.8009567699999998    0.3263283800000000    0.3745318352059925 C
   0.8137707200000001    0.3396548800000000    0.3745318352059925 C
   0.8265846600000001    0.3529813800000000    0.3745318352059925 C
   0.8393986000000000    0.3663078800000000    0.3745318352059925 C
   0.8522125399999999    0.3796343800000000    0.3745318352059925 C
   0.8650264799999998    0.3929608700000000    0.3745318352059925 C
   0.8778404200000000    0.4062873700000000    0.3745318352059925 C
   0.8906543700000000    0.4196138700000000    0.3745318352059925 C
   0.9034683099999999    0.4329403700000000    0.3745318352059925 C
   0.9162822500000000    0.4462668700000000    0.3745318352059925 C
   0.9290961900000001    0.4595933700000000    0.3745318352059925 C
   0.9419101299999999    0.4729198700000001    0.3745318352059925 C
   0.9547240699999999    0.4862463700000000    0.3745318352059925 C
   0.9675380099999998    0.4995728700000000    0.3745318352059925 C
   0.9803519600000001    0.5128993700000000    0.3745318352059925 C
   0.9931658999999998    0.5262258700000000    0.3745318352059925 C
   0.0059798400000000    0.5395523700000000    0.3745318352059925 C
   0.0187937800000000    0.5528788700000000    0.3745318352059925 C
   0.5323765600000000    0.0070049500000000    0.3745318352059925 C
   0.5451905000000000    0.0203314500000000    0.3745318352059925 C
   0.5580044399999999    0.0336579500000000    0.3745318352059925 C
   0.5708183800000000    0.0469844500000000    0.3745318352059925 C
   0.5836323299999999    0.0603109500000000    0.3745318352059925 C
   0.5964462699999999    0.0736374500000000    0.3745318352059925 C
   0.6092602099999999    0.0869639500000000    0.3745318352059925 C
   0.6220741500000000    0.1002904500000000    0.3745318352059925 C
   0.6348880899999999    0.1136169500000000    0.3745318352059925 C
   0.6477020300000000    0.1269434500000000    0.3745318352059925 C
   0.6605159700000001    0.1402699500000000    0.3745318352059925 C
   0.6733299200000000    0.1535964500000000    0.3745318352059925 C
   0.6861438599999999    0.1669229500000000    0.3745318352059925 C
   0.6989577999999999    0.1802494400000000    0.3745318352059925 C
   0.7117717400000001    0.1935759400000000    0.3745318352059925 C
   0.7245856800000000    0.2069024400000000    0.3745318352059925 C
   0.7373996200000000    0.2202289400000000    0.3745318352059925 C
   0.7502135700000000    0.2335554400000000    0.3745318352059925 C
   0.7630275100000001    0.2468819400000000    0.3745318352059925 C
   0.7758414499999999    0.2602084400000000    0.3745318352059925 C
   0.7886553900000000    0.2735349400000000    0.3745318352059925 C
   0.8014693299999999    0.2868614400000000    0.3745318352059925 C
   0.8142832700000000    0.3001879400000000    0.3745318352059925 C
   0.8270972200000000    0.3135144400000000    0.3745318352059925 C
   0.8399111599999999    0.3268409400000000    0.3745318352059925 C
   0.8527251000000001    0.3401674400000000    0.3745318352059925 C
   0.8655390400000000    0.3534939300000000    0.3745318352059925 C
   0.8783529799999999    0.3668204299999999    0.3745318352059925 C
   0.8911669199999999    0.3801469299999999    0.3745318352059925 C
   0.9039808600000000    0.3934734300000000    0.3745318352059925 C
   0.9167948099999998    0.4067999300000000    0.3745318352059925 C
   0.9296087500000000    0.4201264300000000    0.3745318352059925 C
   0.9424226899999999    0.4334529300000000    0.3745318352059925 C
   0.9552366300000000    0.4467794300000000    0.3745318352059925 C
   0.9680505699999997    0.4601059300000001    0.3745318352059925 C
   0.9808645099999996    0.4734324300000001    0.3745318352059925 C
   0.9936784600000000    0.4867589300000000    0.3745318352059925 C
   0.0064924000000000    0.5000854300000001    0.3745318352059925 C
   0.0193063400000000    0.5134119300000000    0.3745318352059925 C
   0.5713309400000000    0.0075175100000000    0.3745318352059925 C
   0.5841448800000000    0.0208440100000000    0.3745318352059925 C
   0.5969588199999998    0.0341705100000000    0.3745318352059925 C
   0.6097727700000000    0.0474970100000000    0.3745318352059925 C
   0.6225867099999998    0.0608235100000000    0.3745318352059925 C
   0.6354006500000000    0.0741500100000000    0.3745318352059925 C
   0.6482145899999999    0.0874765100000000    0.3745318352059925 C
   0.6610285299999999    0.1008030100000000    0.3745318352059925 C
   0.6738424699999999    0.1141295100000000    0.3745318352059925 C
   0.6866564200000002    0.1274560100000000    0.3745318352059925 C
   0.6994703600000000    0.1407825000000000    0.3745318352059925 C
   0.7122842999999998    0.1541090000000000    0.3745318352059925 C
   0.7250982399999999    0.1674355000000000    0.3745318352059925 C
   0.7379121799999999    0.1807620000000000    0.3745318352059925 C
   0.7507261200000001    0.1940885000000000    0.3745318352059925 C
   0.7635400600000000    0.2074150000000000    0.3745318352059925 C
   0.7763540100000001    0.2207415000000000    0.3745318352059925 C
   0.7891679499999998    0.2340680000000000    0.3745318352059925 C
   0.8019818900000000    0.2473945000000000    0.3745318352059925 C
   0.8147958300000000    0.2607210000000000    0.3745318352059925 C
   0.8276097700000002    0.2740475000000000    0.3745318352059925 C
   0.8404237100000000    0.2873740000000000    0.3745318352059925 C
   0.8532376600000000    0.3007005000000000    0.3745318352059925 C
   0.8660515999999999    0.3140269900000000    0.3745318352059925 C
   0.8788655400000002    0.3273534900000000    0.3745318352059925 C
   0.8916794800000001    0.3406799900000000    0.3745318352059925 C
   0.9044934199999998    0.3540064900000001    0.3745318352059925 C
   0.9173073599999999    0.3673329900000001    0.3745318352059925 C
   0.9301213100000000    0.3806594899999999    0.3745318352059925 C
   0.9429352500000001    0.3939859900000000    0.3745318352059925 C
   0.9557491900000000    0.4073124900000000    0.3745318352059925 C
   0.9685631300000002    0.4206389900000000    0.3745318352059925 C
   0.9813770700000001    0.4339654900000000    0.3745318352059925 C
   0.9941910099999998    0.4472919900000000    0.3745318352059925 C
   0.0070049500000000    0.4606184900000000    0.3745318352059925 C
   0.0198189000000000    0.4739449900000001    0.3745318352059925 C
   0.6102853200000000    0.0080300700000000    0.3745318352059925 C
   0.6230992699999999    0.0213565700000000    0.3745318352059925 C
   0.6359132100000000    0.0346830700000000    0.3745318352059925 C
   0.6487271499999998    0.0480095700000000    0.3745318352059925 C
   0.6615410900000001    0.0613360700000000    0.3745318352059925 C
   0.6743550299999997    0.0746625700000000    0.3745318352059925 C
   0.6871689699999999    0.0879890700000000    0.3745318352059925 C
   0.6999829100000000    0.1013155600000000    0.3745318352059925 C
   0.7127968600000000    0.1146420600000000    0.3745318352059925 C
   0.7256108000000000    0.1279685600000000    0.3745318352059925 C
   0.7384247400000000    0.1412950600000000    0.3745318352059925 C
   0.7512386799999999    0.1546215600000000    0.3745318352059925 C
   0.7640526199999997    0.1679480600000000    0.3745318352059925 C
   0.7768665599999999    0.1812745600000000    0.3745318352059925 C
   0.7896805099999998    0.1946010600000000    0.3745318352059925 C
   0.8024944500000001    0.2079275600000000    0.3745318352059925 C
   0.8153083899999999    0.2212540600000000    0.3745318352059925 C
   0.8281223300000000    0.2345805600000000    0.3745318352059925 C
   0.8409362699999998    0.2479070600000000    0.3745318352059925 C
   0.8537502100000000    0.2612335600000000    0.3745318352059925 C
   0.8665641599999999    0.2745600500000000    0.3745318352059925 C
   0.8793781000000002    0.2878865500000000    0.3745318352059925 C
   0.8921920399999999    0.3012130500000000    0.3745318352059925 C
   0.9050059799999998    0.3145395500000000    0.3745318352059925 C
   0.9178199200000000    0.3278660500000000    0.3745318352059925 C
   0.9306338599999998    0.3411925499999999    0.3745318352059925 C
   0.9434477999999999    0.3545190499999999    0.3745318352059925 C
   0.9562617499999998    0.3678455500000000    0.3745318352059925 C
   0.9690756899999999    0.3811720499999999    0.3745318352059925 C
   0.9818896300000003    0.3944985499999999    0.3745318352059925 C
   0.9947035700000000    0.4078250500000000    0.3745318352059925 C
   0.0075175100000000    0.4211515500000000    0.3745318352059925 C
   0.0203314500000000    0.4344780500000001    0.3745318352059925 C
   0.6492397100000000    0.0085426300000000    0.3745318352059925 C
   0.6620536499999998    0.0218691300000000    0.3745318352059925 C
   0.6748675899999997    0.0351956300000000    0.3745318352059925 C
   0.6876815299999999    0.0485221300000000    0.3745318352059925 C
   0.7004954699999998    0.0618486200000000    0.3745318352059925 C
   0.7133094100000001    0.0751751200000000    0.3745318352059925 C
   0.7261233600000000    0.0885016200000000    0.3745318352059925 C
   0.7389373000000000    0.1018281200000000    0.3745318352059925 C
   0.7517512399999999    0.1151546200000000    0.3745318352059925 C
   0.7645651800000001    0.1284811200000000    0.3745318352059925 C
   0.7773791200000000    0.1418076200000000    0.3745318352059925 C
   0.7901930600000001    0.1551341200000000    0.3745318352059925 C
   0.8030069999999999    0.1684606200000000    0.3745318352059925 C
   0.8158209499999999    0.1817871200000000    0.3745318352059925 C
   0.8286348900000001    0.1951136200000000    0.3745318352059925 C
   0.8414488300000003    0.2084401200000000    0.3745318352059925 C
   0.8542627699999999    0.2217666200000000    0.3745318352059925 C
   0.8670767099999998    0.2350931100000000    0.3745318352059925 C
   0.8798906499999999    0.2484196100000000    0.3745318352059925 C
   0.8927046000000000    0.2617461100000000    0.3745318352059925 C
   0.9055185399999999    0.2750726100000000    0.3745318352059925 C
   0.9183324799999998    0.2883991100000000    0.3745318352059925 C
   0.9311464199999999    0.3017256100000000    0.3745318352059925 C
   0.9439603600000001    0.3150521100000000    0.3745318352059925 C
   0.9567742999999997    0.3283786100000000    0.3745318352059925 C
   0.9695882499999997    0.3417051099999999    0.3745318352059925 C
   0.9824021899999998    0.3550316099999999    0.3745318352059925 C
   0.9952161299999995    0.3683581100000000    0.3745318352059925 C
   0.0080300700000000    0.3816846099999999    0.3745318352059925 C
   0.0208440100000000    0.3950111099999999    0.3745318352059925 C
   0.6881940899999999    0.0090551900000000    0.3745318352059925 C
   0.7010080300000000    0.0223816800000000    0.3745318352059925 C
   0.7138219699999998    0.0357081800000000    0.3745318352059925 C
   0.7266359099999999    0.0490346800000000    0.3745318352059925 C
   0.7394498499999999    0.0623611800000000    0.3745318352059925 C
   0.7522638000000003    0.0756876800000000    0.3745318352059925 C
   0.7650777400000000    0.0890141800000000    0.3745318352059925 C
   0.7778916799999999    0.1023406800000000    0.3745318352059925 C
   0.7907056199999999    0.1156671800000000    0.3745318352059925 C
   0.8035195600000000    0.1289936800000000    0.3745318352059925 C
   0.8163335000000000    0.1423201800000000    0.3745318352059925 C
   0.8291474499999999    0.1556466800000000    0.3745318352059925 C
   0.8419613899999999    0.1689731800000000    0.3745318352059925 C
   0.8547753299999999    0.1822996800000000    0.3745318352059925 C
   0.8675892700000001    0.1956261700000000    0.3745318352059925 C
   0.8804032100000000    0.2089526700000000    0.3745318352059925 C
   0.8932171500000000    0.2222791700000000    0.3745318352059925 C
   0.9060310999999999    0.2356056700000000    0.3745318352059925 C
   0.9188450400000000    0.2489321700000000    0.3745318352059925 C
   0.9316589799999999    0.2622586700000000    0.3745318352059925 C
   0.9444729200000000    0.2755851700000000    0.3745318352059925 C
   0.9572868600000000    0.2889116700000000    0.3745318352059925 C
   0.9701007999999999    0.3022381700000000    0.3745318352059925 C
   0.9829147399999998    0.3155646700000000    0.3745318352059925 C
   0.9957286899999996    0.3288911700000000    0.3745318352059925 C
   0.0085426300000000    0.3422176699999999    0.3745318352059925 C
   0.0213565700000000    0.3555441699999999    0.3745318352059925 C
   0.7271484700000000    0.0095677400000000    0.3745318352059925 C
   0.7399624099999997    0.0228942400000000    0.3745318352059925 C
   0.7527763499999999    0.0362207400000000    0.3745318352059925 C
   0.7655902999999998    0.0495472400000000    0.3745318352059925 C
   0.7784042400000001    0.0628737400000000    0.3745318352059925 C
   0.7912181800000000    0.0762002400000000    0.3745318352059925 C
   0.8040321200000001    0.0895267400000000    0.3745318352059925 C
   0.8168460599999999    0.1028532400000000    0.3745318352059925 C
   0.8296600000000001    0.1161797400000000    0.3745318352059925 C
   0.8424739399999999    0.1295062400000000    0.3745318352059925 C
   0.8552878900000001    0.1428327400000000    0.3745318352059925 C
   0.8681018299999999    0.1561592300000000    0.3745318352059925 C
   0.8809157699999999    0.1694857300000000    0.3745318352059925 C
   0.8937297100000000    0.1828122300000000    0.3745318352059925 C
   0.9065436499999999    0.1961387300000000    0.3745318352059925 C
   0.9193575899999998    0.2094652300000000    0.3745318352059925 C
   0.9321715400000001    0.2227917300000000    0.3745318352059925 C
   0.9449854800000000    0.2361182300000000    0.3745318352059925 C
   0.9577994199999997    0.2494447300000000    0.3745318352059925 C
   0.9706133599999999    0.2627712300000000    0.3745318352059925 C
   0.9834273000000000    0.2760977300000000    0.3745318352059925 C
   0.9962412399999999    0.2894242300000000    0.3745318352059925 C
   0.0090551900000000    0.3027507300000000    0.3745318352059925 C
   0.0218691300000000    0.3160772300000000    0.3745318352059925 C
   0.7661028499999999    0.0100803000000000    0.3745318352059925 C
   0.7789167899999999    0.0234068000000000    0.3745318352059925 C
   0.7917307399999998    0.0367333000000000    0.3745318352059925 C
   0.8045446799999999    0.0500598000000000    0.3745318352059925 C
   0.8173586200000000    0.0633863000000000    0.3745318352059925 C
   0.8301725600000001    0.0767128000000000    0.3745318352059925 C
   0.8429864999999999    0.0900393000000000    0.3745318352059925 C
   0.8558004400000001    0.1033658000000000    0.3745318352059925 C
   0.8686143900000000    0.1166922900000000    0.3745318352059925 C
   0.8814283299999999    0.1300187900000000    0.3745318352059925 C
   0.8942422699999999    0.1433452900000000    0.3745318352059925 C
   0.9070562100000001    0.1566717900000000    0.3745318352059925 C
   0.9198701500000001    0.1699982900000000    0.3745318352059925 C
   0.9326840900000000    0.1833247900000000    0.3745318352059925 C
   0.9454980400000000    0.1966512900000000    0.3745318352059925 C
   0.9583119800000000    0.2099777900000000    0.3745318352059925 C
   0.9711259199999999    0.2233042900000000    0.3745318352059925 C
   0.9839398600000000    0.2366307900000000    0.3745318352059925 C
   0.9967537999999999    0.2499572900000000    0.3745318352059925 C
   0.0095677400000000    0.2632837900000000    0.3745318352059925 C
   0.0223816799999999    0.2766102900000000    0.3745318352059925 C
   0.8050572399999999    0.0105928600000000    0.3745318352059925 C
   0.8178711799999999    0.0239193600000000    0.3745318352059925 C
   0.8306851199999999    0.0372458600000000    0.3745318352059925 C
   0.8434990599999997    0.0505723600000000    0.3745318352059925 C
   0.8563130000000000    0.0638988600000000    0.3745318352059925 C
   0.8691269400000000    0.0772253500000000    0.3745318352059925 C
   0.8819408900000000    0.0905518500000000    0.3745318352059925 C
   0.8947548299999999    0.1038783500000000    0.3745318352059925 C
   0.9075687699999999    0.1172048500000000    0.3745318352059925 C
   0.9203827099999999    0.1305313500000000    0.3745318352059925 C
   0.9331966499999998    0.1438578500000000    0.3745318352059925 C
   0.9460105899999998    0.1571843500000000    0.3745318352059925 C
   0.9588245300000000    0.1705108500000000    0.3745318352059925 C
   0.9716384799999999    0.1838373500000000    0.3745318352059925 C
   0.9844524200000000    0.1971638500000000    0.3745318352059925 C
   0.9972663599999999    0.2104903500000000    0.3745318352059925 C
   0.0100803000000000    0.2238168500000000    0.3745318352059925 C
   0.0228942400000000    0.2371433500000000    0.3745318352059925 C
   0.8440116199999999    0.0111054200000000    0.3745318352059925 C
   0.8568255600000000    0.0244319200000000    0.3745318352059925 C
   0.8696395000000001    0.0377584100000000    0.3745318352059925 C
   0.8824534399999999    0.0510849100000000    0.3745318352059925 C
   0.8952673800000001    0.0644114100000000    0.3745318352059925 C
   0.9080813300000000    0.0777379100000000    0.3745318352059925 C
   0.9208952700000002    0.0910644100000000    0.3745318352059925 C
   0.9337092099999998    0.1043909100000000    0.3745318352059925 C
   0.9465231499999998    0.1177174100000000    0.3745318352059925 C
   0.9593370900000001    0.1310439100000000    0.3745318352059925 C
   0.9721510299999998    0.1443704100000000    0.3745318352059925 C
   0.9849649799999999    0.1576969100000000    0.3745318352059925 C
   0.9977789199999999    0.1710234100000000    0.3745318352059925 C
   0.0105928600000000    0.1843499100000000    0.3745318352059925 C
   0.0234068000000000    0.1976764100000000    0.3745318352059925 C
   0.8829659999999999    0.0116179700000000    0.3745318352059925 C
   0.8957799399999999    0.0249444700000000    0.3745318352059925 C
   0.9085938799999999    0.0382709700000000    0.3745318352059925 C
   0.9214078300000001    0.0515974700000000    0.3745318352059925 C
   0.9342217700000000    0.0649239700000000    0.3745318352059925 C
   0.9470357100000001    0.0782504700000000    0.3745318352059925 C
   0.9598496499999999    0.0915769700000000    0.3745318352059925 C
   0.9726635899999998    0.1049034700000000    0.3745318352059925 C
   0.9854775299999999    0.1182299700000000    0.3745318352059925 C
   0.9982914699999998    0.1315564700000000    0.3745318352059925 C
   0.0111054200000000    0.1448829700000000    0.3745318352059925 C
   0.0239193600000000    0.1582094700000000    0.3745318352059925 C
   0.9219203799999999    0.0121305300000000    0.3745318352059925 C
   0.9347343199999998    0.0254570300000000    0.3745318352059925 C
   0.9475482699999999    0.0387835300000000    0.3745318352059925 C
   0.9603622100000001    0.0521100300000000    0.3745318352059925 C
   0.9731761500000000    0.0654365300000000    0.3745318352059925 C
   0.9859900899999999    0.0787630300000000    0.3745318352059925 C
   0.9988040299999998    0.0920895300000000    0.3745318352059925 C
   0.0116179700000000    0.1054160300000000    0.3745318352059925 C
   0.0244319200000000    0.1187425300000000    0.3745318352059925 C
   0.9608747699999999    0.0126430900000000    0.3745318352059925 C
   0.9736887099999997    0.0259695900000000    0.3745318352059925 C
   0.9865026499999999    0.0392960900000000    0.3745318352059925 C
   0.9993165900000001    0.0526225900000000    0.3745318352059925 C
   0.0121305300000000    0.0659490900000000    0.3745318352059925 C
   0.0249444700000000    0.0792755900000000    0.3745318352059925 C
   0.9998291499999999    0.0131556500000000    0.3745318352059925 C
   0.0126430900000000    0.0264821500000000    0.3745318352059925 C
   0.0254570300000000    0.0398086500000000    0.3745318352059925 C
   0.0256016400000001    0.3067076300000000    0.5000000000000000 C
   0.0256016400000000    0.6400409633333333    0.5000000000000000 C
   0.0256016400000001    0.9733742966666667    0.5000000000000000 C
   0.3589349733333332    0.3067076300000000    0.5000000000000000 C
   0.3589349733333331    0.6400409633333333    0.5000000000000000 C
   0.3589349733333335    0.9733742966666667    0.5000000000000000 C
   0.6922683066666668    0.3067076300000000    0.5000000000000000 C
   0.6922683066666667    0.6400409633333333    0.5000000000000000 C
   0.6922683066666665    0.9733742966666667    0.5000000000000000 C
   0.0394265233333334    0.3189964166666667    0.5000000000000000 C
   0.0394265233333334    0.6523297499999999    0.5000000000000000 C
   0.0394265233333335    0.9856630833333333    0.5000000000000000 C
   0.3727598566666666    0.3189964166666667    0.5000000000000000 C
   0.3727598566666667    0.6523297499999999    0.5000000000000000 C
   0.3727598566666668    0.9856630833333333    0.5000000000000000 C
   0.7060931899999999    0.3189964166666667    0.5000000000000000 C
   0.7060931899999997    0.6523297499999999    0.5000000000000000 C
   0.7060931899999998    0.9856630833333333    0.5000000000000000 C
   0.0532514066666667    0.3312852033333333    0.5000000000000000 C
   0.0532514066666667    0.6646185366666666    0.5000000000000000 C
   0.0532514066666667    0.9979518700000002    0.5000000000000000 C
   0.3865847400000000    0.3312852033333333    0.5000000000000000 C
   0.3865847400000000    0.6646185366666666    0.5000000000000000 C
   0.3865847399999999    0.9979518700000002    0.5000000000000000 C
   0.7199180733333334    0.3312852033333333    0.5000000000000000 C
   0.7199180733333335    0.6646185366666666    0.5000000000000000 C
   0.7199180733333335    0.9979518700000002    0.5000000000000000 C
   0.0240655400000000    0.2683051700000000    0.5000000000000000 C
   0.0240655400000000    0.6016385033333334    0.5000000000000000 C
   0.0240655400000000    0.9349718366666666    0.5000000000000000 C
   0.3573988733333334    0.2683051700000000    0.5000000000000000 C
   0.3573988733333334    0.6016385033333334    0.5000000000000000 C
   0.3573988733333335    0.9349718366666666    0.5000000000000000 C
   0.6907322066666667    0.2683051700000000    0.5000000000000000 C
   0.6907322066666667    0.6016385033333334    0.5000000000000000 C
   0.6907322066666666    0.9349718366666666    0.5000000000000000 C
   0.0378904233333334    0.2805939566666667    0.5000000000000000 C
   0.0378904233333334    0.6139272900000000    0.5000000000000000 C
   0.0378904233333333    0.9472606233333335    0.5000000000000000 C
   0.3712237566666667    0.2805939566666667    0.5000000000000000 C
   0.3712237566666667    0.6139272900000000    0.5000000000000000 C
   0.3712237566666668    0.9472606233333335    0.5000000000000000 C
   0.7045570899999999    0.2805939566666667    0.5000000000000000 C
   0.7045570899999997    0.6139272900000000    0.5000000000000000 C
   0.7045570899999998    0.9472606233333335    0.5000000000000000 C
   0.0517153100000000    0.2928827433333334    0.5000000000000000 C
   0.0517153100000000    0.6262160766666667    0.5000000000000000 C
   0.0517153100000000    0.9595494100000000    0.5000000000000000 C
   0.3850486433333334    0.2928827433333334    0.5000000000000000 C
   0.3850486433333334    0.6262160766666667    0.5000000000000000 C
   0.3850486433333335    0.9595494100000000    0.5000000000000000 C
   0.7183819766666666    0.2928827433333334    0.5000000000000000 C
   0.7183819766666664    0.6262160766666667    0.5000000000000000 C
   0.7183819766666666    0.9595494100000000    0.5000000000000000 C
   0.0655401933333333    0.3051715300000001    0.5000000000000000 C
   0.0655401933333334    0.6385048633333333    0.5000000000000000 C
   0.0655401933333334    0.9718381966666666    0.5000000000000000 C
   0.3988735266666666    0.3051715300000001    0.5000000000000000 C
   0.3988735266666667    0.6385048633333333    0.5000000000000000 C
   0.3988735266666666    0.9718381966666666    0.5000000000000000 C
   0.7322068599999999    0.3051715300000001    0.5000000000000000 C
   0.7322068599999998    0.6385048633333333    0.5000000000000000 C
   0.7322068599999999    0.9718381966666666    0.5000000000000000 C
   0.0793650800000000    0.3174603166666667    0.5000000000000000 C
   0.0793650800000000    0.6507936500000000    0.5000000000000000 C
   0.0793650799999999    0.9841269833333334    0.5000000000000000 C
   0.4126984133333333    0.3174603166666667    0.5000000000000000 C
   0.4126984133333333    0.6507936500000000    0.5000000000000000 C
   0.4126984133333334    0.9841269833333334    0.5000000000000000 C
   0.7460317466666665    0.3174603166666667    0.5000000000000000 C
   0.7460317466666665    0.6507936500000000    0.5000000000000000 C
   0.7460317466666664    0.9841269833333334    0.5000000000000000 C
   0.0931899633333333    0.3297491033333333    0.5000000000000000 C
   0.0931899633333334    0.6630824366666667    0.5000000000000000 C
   0.0931899633333334    0.9964157700000000    0.5000000000000000 C
   0.4265232966666666    0.3297491033333333    0.5000000000000000 C
   0.4265232966666665    0.6630824366666667    0.5000000000000000 C
   0.4265232966666669    0.9964157700000000    0.5000000000000000 C
   0.7598566299999999    0.3297491033333333    0.5000000000000000 C
   0.7598566299999997    0.6630824366666667    0.5000000000000000 C
   0.7598566299999998    0.9964157700000000    0.5000000000000000 C
   0.0225294433333333    0.2299027133333334    0.5000000000000000 C
   0.0225294433333333    0.5632360466666667    0.5000000000000000 C
   0.0225294433333335    0.8965693800000000    0.5000000000000000 C
   0.3558627766666666    0.2299027133333334    0.5000000000000000 C
   0.3558627766666666    0.5632360466666667    0.5000000000000000 C
   0.3558627766666667    0.8965693800000000    0.5000000000000000 C
   0.6891961099999999    0.2299027133333334    0.5000000000000000 C
   0.6891961099999998    0.5632360466666667    0.5000000000000000 C
   0.6891961099999999    0.8965693800000000    0.5000000000000000 C
   0.0363543266666667    0.2421915000000000    0.5000000000000000 C
   0.0363543266666666    0.5755248333333334    0.5000000000000000 C
   0.0363543266666668    0.9088581666666666    0.5000000000000000 C
   0.3696876599999999    0.2421915000000000    0.5000000000000000 C
   0.3696876599999999    0.5755248333333334    0.5000000000000000 C
   0.3696876600000000    0.9088581666666666    0.5000000000000000 C
   0.7030209933333331    0.2421915000000000    0.5000000000000000 C
   0.7030209933333331    0.5755248333333334    0.5000000000000000 C
   0.7030209933333333    0.9088581666666666    0.5000000000000000 C
   0.0501792100000000    0.2544802866666667    0.5000000000000000 C
   0.0501792100000000    0.5878136200000000    0.5000000000000000 C
   0.0501792100000000    0.9211469533333333    0.5000000000000000 C
   0.3835125433333332    0.2544802866666667    0.5000000000000000 C
   0.3835125433333333    0.5878136200000000    0.5000000000000000 C
   0.3835125433333335    0.9211469533333333    0.5000000000000000 C
   0.7168458766666665    0.2544802866666667    0.5000000000000000 C
   0.7168458766666667    0.5878136200000000    0.5000000000000000 C
   0.7168458766666664    0.9211469533333333    0.5000000000000000 C
   0.0640040966666667    0.2667690733333333    0.5000000000000000 C
   0.0640040966666668    0.6001024066666666    0.5000000000000000 C
   0.0640040966666668    0.9334357400000002    0.5000000000000000 C
   0.3973374299999998    0.2667690733333333    0.5000000000000000 C
   0.3973374299999999    0.6001024066666666    0.5000000000000000 C
   0.3973374300000000    0.9334357400000002    0.5000000000000000 C
   0.7306707633333331    0.2667690733333333    0.5000000000000000 C
   0.7306707633333331    0.6001024066666666    0.5000000000000000 C
   0.7306707633333329    0.9334357400000002    0.5000000000000000 C
   0.0778289800000000    0.2790578600000000    0.5000000000000000 C
   0.0778289800000000    0.6123911933333334    0.5000000000000000 C
   0.0778289800000001    0.9457245266666667    0.5000000000000000 C
   0.4111623133333332    0.2790578600000000    0.5000000000000000 C
   0.4111623133333334    0.6123911933333334    0.5000000000000000 C
   0.4111623133333334    0.9457245266666667    0.5000000000000000 C
   0.7444956466666667    0.2790578600000000    0.5000000000000000 C
   0.7444956466666663    0.6123911933333334    0.5000000000000000 C
   0.7444956466666669    0.9457245266666667    0.5000000000000000 C
   0.0916538666666667    0.2913466466666667    0.5000000000000000 C
   0.0916538666666666    0.6246799800000000    0.5000000000000000 C
   0.0916538666666668    0.9580133133333333    0.5000000000000000 C
   0.4249871999999998    0.2913466466666667    0.5000000000000000 C
   0.4249872000000000    0.6246799800000000    0.5000000000000000 C
   0.4249872000000001    0.9580133133333333    0.5000000000000000 C
   0.7583205333333334    0.2913466466666667    0.5000000000000000 C
   0.7583205333333330    0.6246799800000000    0.5000000000000000 C
   0.7583205333333332    0.9580133133333333    0.5000000000000000 C
   0.1054787500000000    0.3036354333333333    0.5000000000000000 C
   0.1054787500000001    0.6369687666666667    0.5000000000000000 C
   0.1054787500000001    0.9703021000000001    0.5000000000000000 C
   0.4388120833333333    0.3036354333333333    0.5000000000000000 C
   0.4388120833333334    0.6369687666666667    0.5000000000000000 C
   0.4388120833333333    0.9703021000000001    0.5000000000000000 C
   0.7721454166666667    0.3036354333333333    0.5000000000000000 C
   0.7721454166666668    0.6369687666666667    0.5000000000000000 C
   0.7721454166666664    0.9703021000000001    0.5000000000000000 C
   0.1193036366666667    0.3159242200000000    0.5000000000000000 C
   0.1193036366666668    0.6492575533333333    0.5000000000000000 C
   0.1193036366666668    0.9825908866666667    0.5000000000000000 C
   0.4526369700000000    0.3159242200000000    0.5000000000000000 C
   0.4526369700000000    0.6492575533333333    0.5000000000000000 C
   0.4526369700000001    0.9825908866666667    0.5000000000000000 C
   0.7859703033333333    0.3159242200000000    0.5000000000000000 C
   0.7859703033333334    0.6492575533333333    0.5000000000000000 C
   0.7859703033333332    0.9825908866666667    0.5000000000000000 C
   0.1331285200000000    0.3282130066666667    0.5000000000000000 C
   0.1331285200000001    0.6615463400000000    0.5000000000000000 C
   0.1331285200000001    0.9948796733333334    0.5000000000000000 C
   0.4664618533333333    0.3282130066666667    0.5000000000000000 C
   0.4664618533333333    0.6615463400000000    0.5000000000000000 C
   0.4664618533333333    0.9948796733333334    0.5000000000000000 C
   0.7997951866666666    0.3282130066666667    0.5000000000000000 C
   0.7997951866666667    0.6615463400000000    0.5000000000000000 C
   0.7997951866666665    0.9948796733333334    0.5000000000000000 C
   0.0209933433333334    0.1915002566666666    0.5000000000000000 C
   0.0209933433333334    0.5248335900000000    0.5000000000000000 C
   0.0209933433333333    0.8581669233333333    0.5000000000000000 C
   0.3543266766666667    0.1915002566666666    0.5000000000000000 C
   0.3543266766666667    0.5248335900000000    0.5000000000000000 C
   0.3543266766666667    0.8581669233333333    0.5000000000000000 C
   0.6876600099999999    0.1915002566666666    0.5000000000000000 C
   0.6876600100000001    0.5248335900000000    0.5000000000000000 C
   0.6876600099999998    0.8581669233333333    0.5000000000000000 C
   0.0348182300000000    0.2037890433333333    0.5000000000000000 C
   0.0348182300000000    0.5371223766666666    0.5000000000000000 C
   0.0348182300000001    0.8704557099999999    0.5000000000000000 C
   0.3681515633333334    0.2037890433333333    0.5000000000000000 C
   0.3681515633333333    0.5371223766666666    0.5000000000000000 C
   0.3681515633333335    0.8704557099999999    0.5000000000000000 C
   0.7014848966666665    0.2037890433333333    0.5000000000000000 C
   0.7014848966666666    0.5371223766666666    0.5000000000000000 C
   0.7014848966666665    0.8704557099999999    0.5000000000000000 C
   0.0486431133333333    0.2160778300000000    0.5000000000000000 C
   0.0486431133333334    0.5494111633333334    0.5000000000000000 C
   0.0486431133333334    0.8827444966666667    0.5000000000000000 C
   0.3819764466666667    0.2160778300000000    0.5000000000000000 C
   0.3819764466666667    0.5494111633333334    0.5000000000000000 C
   0.3819764466666669    0.8827444966666667    0.5000000000000000 C
   0.7153097800000000    0.2160778300000000    0.5000000000000000 C
   0.7153097799999999    0.5494111633333334    0.5000000000000000 C
   0.7153097800000001    0.8827444966666667    0.5000000000000000 C
   0.0624679966666667    0.2283666166666667    0.5000000000000000 C
   0.0624679966666667    0.5616999499999999    0.5000000000000000 C
   0.0624679966666667    0.8950332833333333    0.5000000000000000 C
   0.3958013300000000    0.2283666166666667    0.5000000000000000 C
   0.3958013300000000    0.5616999499999999    0.5000000000000000 C
   0.3958013300000000    0.8950332833333333    0.5000000000000000 C
   0.7291346633333332    0.2283666166666667    0.5000000000000000 C
   0.7291346633333333    0.5616999499999999    0.5000000000000000 C
   0.7291346633333333    0.8950332833333333    0.5000000000000000 C
   0.0762928833333334    0.2406554033333334    0.5000000000000000 C
   0.0762928833333333    0.5739887366666667    0.5000000000000000 C
   0.0762928833333334    0.9073220700000001    0.5000000000000000 C
   0.4096262166666667    0.2406554033333334    0.5000000000000000 C
   0.4096262166666667    0.5739887366666667    0.5000000000000000 C
   0.4096262166666667    0.9073220700000001    0.5000000000000000 C
   0.7429595500000000    0.2406554033333334    0.5000000000000000 C
   0.7429595499999999    0.5739887366666667    0.5000000000000000 C
   0.7429595499999998    0.9073220700000001    0.5000000000000000 C
   0.0901177666666667    0.2529441900000000    0.5000000000000000 C
   0.0901177666666668    0.5862775233333333    0.5000000000000000 C
   0.0901177666666667    0.9196108566666668    0.5000000000000000 C
   0.4234511000000000    0.2529441900000000    0.5000000000000000 C
   0.4234510999999999    0.5862775233333333    0.5000000000000000 C
   0.4234511000000003    0.9196108566666668    0.5000000000000000 C
   0.7567844333333333    0.2529441900000000    0.5000000000000000 C
   0.7567844333333335    0.5862775233333333    0.5000000000000000 C
   0.7567844333333332    0.9196108566666668    0.5000000000000000 C
   0.1039426533333334    0.2652329733333333    0.5000000000000000 C
   0.1039426533333333    0.5985663066666667    0.5000000000000000 C
   0.1039426533333335    0.9318996399999999    0.5000000000000000 C
   0.4372759866666667    0.2652329733333333    0.5000000000000000 C
   0.4372759866666667    0.5985663066666667    0.5000000000000000 C
   0.4372759866666667    0.9318996399999999    0.5000000000000000 C
   0.7706093199999999    0.2652329733333333    0.5000000000000000 C
   0.7706093199999997    0.5985663066666667    0.5000000000000000 C
   0.7706093200000000    0.9318996399999999    0.5000000000000000 C
   0.1177675366666667    0.2775217600000000    0.5000000000000000 C
   0.1177675366666668    0.6108550933333332    0.5000000000000000 C
   0.1177675366666667    0.9441884266666668    0.5000000000000000 C
   0.4511008700000001    0.2775217600000000    0.5000000000000000 C
   0.4511008700000001    0.6108550933333332    0.5000000000000000 C
   0.4511008700000000    0.9441884266666668    0.5000000000000000 C
   0.7844342033333332    0.2775217600000000    0.5000000000000000 C
   0.7844342033333335    0.6108550933333332    0.5000000000000000 C
   0.7844342033333335    0.9441884266666668    0.5000000000000000 C
   0.1315924233333334    0.2898105466666666    0.5000000000000000 C
   0.1315924233333333    0.6231438800000000    0.5000000000000000 C
   0.1315924233333335    0.9564772133333332    0.5000000000000000 C
   0.4649257566666667    0.2898105466666666    0.5000000000000000 C
   0.4649257566666667    0.6231438800000000    0.5000000000000000 C
   0.4649257566666667    0.9564772133333332    0.5000000000000000 C
   0.7982590899999999    0.2898105466666666    0.5000000000000000 C
   0.7982590900000001    0.6231438800000000    0.5000000000000000 C
   0.7982590900000002    0.9564772133333332    0.5000000000000000 C
   0.1454173066666667    0.3020993333333333    0.5000000000000000 C
   0.1454173066666668    0.6354326666666666    0.5000000000000000 C
   0.1454173066666667    0.9687659999999999    0.5000000000000000 C
   0.4787506400000001    0.3020993333333333    0.5000000000000000 C
   0.4787506400000001    0.6354326666666666    0.5000000000000000 C
   0.4787506399999999    0.9687659999999999    0.5000000000000000 C
   0.8120839733333332    0.3020993333333333    0.5000000000000000 C
   0.8120839733333330    0.6354326666666666    0.5000000000000000 C
   0.8120839733333332    0.9687659999999999    0.5000000000000000 C
   0.1592421900000000    0.3143881200000000    0.5000000000000000 C
   0.1592421900000001    0.6477214533333333    0.5000000000000000 C
   0.1592421900000001    0.9810547866666666    0.5000000000000000 C
   0.4925755233333333    0.3143881200000000    0.5000000000000000 C
   0.4925755233333331    0.6477214533333333    0.5000000000000000 C
   0.4925755233333335    0.9810547866666666    0.5000000000000000 C
   0.8259088566666668    0.3143881200000000    0.5000000000000000 C
   0.8259088566666666    0.6477214533333333    0.5000000000000000 C
   0.8259088566666669    0.9810547866666666    0.5000000000000000 C
   0.1730670766666667    0.3266769066666667    0.5000000000000000 C
   0.1730670766666667    0.6600102400000000    0.5000000000000000 C
   0.1730670766666666    0.9933435733333335    0.5000000000000000 C
   0.5064004099999999    0.3266769066666667    0.5000000000000000 C
   0.5064004099999998    0.6600102400000000    0.5000000000000000 C
   0.5064004100000002    0.9933435733333335    0.5000000000000000 C
   0.8397337433333334    0.3266769066666667    0.5000000000000000 C
   0.8397337433333332    0.6600102400000000    0.5000000000000000 C
   0.8397337433333335    0.9933435733333335    0.5000000000000000 C
   0.0194572466666667    0.1530977966666667    0.5000000000000000 C
   0.0194572466666667    0.4864311300000000    0.5000000000000000 C
   0.0194572466666666    0.8197644633333335    0.5000000000000000 C
   0.3527905800000000    0.1530977966666667    0.5000000000000000 C
   0.3527905800000000    0.4864311300000000    0.5000000000000000 C
   0.3527905800000001    0.8197644633333335    0.5000000000000000 C
   0.6861239133333334    0.1530977966666667    0.5000000000000000 C
   0.6861239133333333    0.4864311300000000    0.5000000000000000 C
   0.6861239133333331    0.8197644633333335    0.5000000000000000 C
   0.0332821300000000    0.1653865833333334    0.5000000000000000 C
   0.0332821300000000    0.4987199166666667    0.5000000000000000 C
   0.0332821300000001    0.8320532500000001    0.5000000000000000 C
   0.3666154633333333    0.1653865833333334    0.5000000000000000 C
   0.3666154633333334    0.4987199166666667    0.5000000000000000 C
   0.3666154633333334    0.8320532500000001    0.5000000000000000 C
   0.6999487966666665    0.1653865833333334    0.5000000000000000 C
   0.6999487966666664    0.4987199166666667    0.5000000000000000 C
   0.6999487966666664    0.8320532500000001    0.5000000000000000 C
   0.0471070133333333    0.1776753700000000    0.5000000000000000 C
   0.0471070133333334    0.5110087033333334    0.5000000000000000 C
   0.0471070133333334    0.8443420366666666    0.5000000000000000 C
   0.3804403466666666    0.1776753700000000    0.5000000000000000 C
   0.3804403466666665    0.5110087033333334    0.5000000000000000 C
   0.3804403466666668    0.8443420366666666    0.5000000000000000 C
   0.7137736799999999    0.1776753700000000    0.5000000000000000 C
   0.7137736799999999    0.5110087033333334    0.5000000000000000 C
   0.7137736799999999    0.8443420366666666    0.5000000000000000 C
   0.0609319000000000    0.1899641566666667    0.5000000000000000 C
   0.0609319000000001    0.5232974900000000    0.5000000000000000 C
   0.0609319000000000    0.8566308233333334    0.5000000000000000 C
   0.3942652333333333    0.1899641566666667    0.5000000000000000 C
   0.3942652333333333    0.5232974900000000    0.5000000000000000 C
   0.3942652333333335    0.8566308233333334    0.5000000000000000 C
   0.7275985666666667    0.1899641566666667    0.5000000000000000 C
   0.7275985666666666    0.5232974900000000    0.5000000000000000 C
   0.7275985666666668    0.8566308233333334    0.5000000000000000 C
   0.0747567833333334    0.2022529433333333    0.5000000000000000 C
   0.0747567833333334    0.5355862766666666    0.5000000000000000 C
   0.0747567833333335    0.8689196100000001    0.5000000000000000 C
   0.4080901166666666    0.2022529433333333    0.5000000000000000 C
   0.4080901166666666    0.5355862766666666    0.5000000000000000 C
   0.4080901166666667    0.8689196100000001    0.5000000000000000 C
   0.7414234499999999    0.2022529433333333    0.5000000000000000 C
   0.7414234500000000    0.5355862766666666    0.5000000000000000 C
   0.7414234499999998    0.8689196100000001    0.5000000000000000 C
   0.0885816700000000    0.2145417300000000    0.5000000000000000 C
   0.0885816700000000    0.5478750633333334    0.5000000000000000 C
   0.0885816700000001    0.8812083966666667    0.5000000000000000 C
   0.4219150033333331    0.2145417300000000    0.5000000000000000 C
   0.4219150033333332    0.5478750633333334    0.5000000000000000 C
   0.4219150033333334    0.8812083966666667    0.5000000000000000 C
   0.7552483366666666    0.2145417300000000    0.5000000000000000 C
   0.7552483366666666    0.5478750633333334    0.5000000000000000 C
   0.7552483366666667    0.8812083966666667    0.5000000000000000 C
   0.1024065533333333    0.2268305166666666    0.5000000000000000 C
   0.1024065533333333    0.5601638500000000    0.5000000000000000 C
   0.1024065533333334    0.8934971833333333    0.5000000000000000 C
   0.4357398866666665    0.2268305166666666    0.5000000000000000 C
   0.4357398866666666    0.5601638500000000    0.5000000000000000 C
   0.4357398866666669    0.8934971833333333    0.5000000000000000 C
   0.7690732199999999    0.2268305166666666    0.5000000000000000 C
   0.7690732200000000    0.5601638500000000    0.5000000000000000 C
   0.7690732200000002    0.8934971833333333    0.5000000000000000 C
   0.1162314400000000    0.2391193033333333    0.5000000000000000 C
   0.1162314400000000    0.5724526366666667    0.5000000000000000 C
   0.1162314400000000    0.9057859699999999    0.5000000000000000 C
   0.4495647733333332    0.2391193033333333    0.5000000000000000 C
   0.4495647733333332    0.5724526366666667    0.5000000000000000 C
   0.4495647733333334    0.9057859699999999    0.5000000000000000 C
   0.7828981066666664    0.2391193033333333    0.5000000000000000 C
   0.7828981066666667    0.5724526366666667    0.5000000000000000 C
   0.7828981066666666    0.9057859699999999    0.5000000000000000 C
   0.1300563233333334    0.2514080900000000    0.5000000000000000 C
   0.1300563233333334    0.5847414233333333    0.5000000000000000 C
   0.1300563233333336    0.9180747566666666    0.5000000000000000 C
   0.4633896566666666    0.2514080900000000    0.5000000000000000 C
   0.4633896566666667    0.5847414233333333    0.5000000000000000 C
   0.4633896566666668    0.9180747566666666    0.5000000000000000 C
   0.7967229900000000    0.2514080900000000    0.5000000000000000 C
   0.7967229899999999    0.5847414233333333    0.5000000000000000 C
   0.7967229899999999    0.9180747566666666    0.5000000000000000 C
   0.1438812100000000    0.2636968766666666    0.5000000000000000 C
   0.1438812100000001    0.5970302100000000    0.5000000000000000 C
   0.1438812100000001    0.9303635433333335    0.5000000000000000 C
   0.4772145433333332    0.2636968766666666    0.5000000000000000 C
   0.4772145433333334    0.5970302100000000    0.5000000000000000 C
   0.4772145433333334    0.9303635433333335    0.5000000000000000 C
   0.8105478766666665    0.2636968766666666    0.5000000000000000 C
   0.8105478766666666    0.5970302100000000    0.5000000000000000 C
   0.8105478766666664    0.9303635433333335    0.5000000000000000 C
   0.1577060933333334    0.2759856633333333    0.5000000000000000 C
   0.1577060933333334    0.6093189966666667    0.5000000000000000 C
   0.1577060933333334    0.9426523300000000    0.5000000000000000 C
   0.4910394266666667    0.2759856633333333    0.5000000000000000 C
   0.4910394266666666    0.6093189966666667    0.5000000000000000 C
   0.4910394266666667    0.9426523300000000    0.5000000000000000 C
   0.8243727599999999    0.2759856633333333    0.5000000000000000 C
   0.8243727600000000    0.6093189966666667    0.5000000000000000 C
   0.8243727599999997    0.9426523300000000    0.5000000000000000 C
   0.1715309766666667    0.2882744500000000    0.5000000000000000 C
   0.1715309766666667    0.6216077833333333    0.5000000000000000 C
   0.1715309766666667    0.9549411166666666    0.5000000000000000 C
   0.5048643099999999    0.2882744500000000    0.5000000000000000 C
   0.5048643099999999    0.6216077833333333    0.5000000000000000 C
   0.5048643100000002    0.9549411166666666    0.5000000000000000 C
   0.8381976433333332    0.2882744500000000    0.5000000000000000 C
   0.8381976433333334    0.6216077833333333    0.5000000000000000 C
   0.8381976433333332    0.9549411166666666    0.5000000000000000 C
   0.1853558633333334    0.3005632366666666    0.5000000000000000 C
   0.1853558633333334    0.6338965700000000    0.5000000000000000 C
   0.1853558633333332    0.9672299033333334    0.5000000000000000 C
   0.5186891966666666    0.3005632366666666    0.5000000000000000 C
   0.5186891966666666    0.6338965700000000    0.5000000000000000 C
   0.5186891966666668    0.9672299033333334    0.5000000000000000 C
   0.8520225299999997    0.3005632366666666    0.5000000000000000 C
   0.8520225299999999    0.6338965700000000    0.5000000000000000 C
   0.8520225300000001    0.9672299033333334    0.5000000000000000 C
   0.1991807466666668    0.3128520233333333    0.5000000000000000 C
   0.1991807466666668    0.6461853566666665    0.5000000000000000 C
   0.1991807466666669    0.9795186900000000    0.5000000000000000 C
   0.5325140800000000    0.3128520233333333    0.5000000000000000 C
   0.5325140799999999    0.6461853566666665    0.5000000000000000 C
   0.5325140800000000    0.9795186900000000    0.5000000000000000 C
   0.8658474133333334    0.3128520233333333    0.5000000000000000 C
   0.8658474133333333    0.6461853566666665    0.5000000000000000 C
   0.8658474133333333    0.9795186900000000    0.5000000000000000 C
   0.2130056333333334    0.3251408099999999    0.5000000000000000 C
   0.2130056333333334    0.6584741433333333    0.5000000000000000 C
   0.2130056333333335    0.9918074766666667    0.5000000000000000 C
   0.5463389666666666    0.3251408099999999    0.5000000000000000 C
   0.5463389666666667    0.6584741433333333    0.5000000000000000 C
   0.5463389666666667    0.9918074766666667    0.5000000000000000 C
   0.8796723000000001    0.3251408099999999    0.5000000000000000 C
   0.8796723000000000    0.6584741433333333    0.5000000000000000 C
   0.8796723000000000    0.9918074766666667    0.5000000000000000 C
   0.0179211466666667    0.1146953400000000    0.5000000000000000 C
   0.0179211466666667    0.4480286733333333    0.5000000000000000 C
   0.0179211466666667    0.7813620066666667    0.5000000000000000 C
   0.3512544800000000    0.1146953400000000    0.5000000000000000 C
   0.3512544800000000    0.4480286733333333    0.5000000000000000 C
   0.3512544800000000    0.7813620066666667    0.5000000000000000 C
   0.6845878133333334    0.1146953400000000    0.5000000000000000 C
   0.6845878133333333    0.4480286733333333    0.5000000000000000 C
   0.6845878133333333    0.7813620066666667    0.5000000000000000 C
   0.0317460333333333    0.1269841266666666    0.5000000000000000 C
   0.0317460333333333    0.4603174600000000    0.5000000000000000 C
   0.0317460333333333    0.7936507933333334    0.5000000000000000 C
   0.3650793666666666    0.1269841266666666    0.5000000000000000 C
   0.3650793666666667    0.4603174600000000    0.5000000000000000 C
   0.3650793666666666    0.7936507933333334    0.5000000000000000 C
   0.6984126999999999    0.1269841266666666    0.5000000000000000 C
   0.6984126999999999    0.4603174600000000    0.5000000000000000 C
   0.6984126999999997    0.7936507933333334    0.5000000000000000 C
   0.0455709166666667    0.1392729133333333    0.5000000000000000 C
   0.0455709166666667    0.4726062466666667    0.5000000000000000 C
   0.0455709166666668    0.8059395799999999    0.5000000000000000 C
   0.3789042500000000    0.1392729133333333    0.5000000000000000 C
   0.3789042500000000    0.4726062466666667    0.5000000000000000 C
   0.3789042500000000    0.8059395799999999    0.5000000000000000 C
   0.7122375833333333    0.1392729133333333    0.5000000000000000 C
   0.7122375833333334    0.4726062466666667    0.5000000000000000 C
   0.7122375833333333    0.8059395799999999    0.5000000000000000 C
   0.0593958000000000    0.1515617000000000    0.5000000000000000 C
   0.0593958000000001    0.4848950333333334    0.5000000000000000 C
   0.0593958000000000    0.8182283666666668    0.5000000000000000 C
   0.3927291333333333    0.1515617000000000    0.5000000000000000 C
   0.3927291333333333    0.4848950333333334    0.5000000000000000 C
   0.3927291333333335    0.8182283666666668    0.5000000000000000 C
   0.7260624666666665    0.1515617000000000    0.5000000000000000 C
   0.7260624666666666    0.4848950333333334    0.5000000000000000 C
   0.7260624666666664    0.8182283666666668    0.5000000000000000 C
   0.0732206866666667    0.1638504866666667    0.5000000000000000 C
   0.0732206866666667    0.4971838200000001    0.5000000000000000 C
   0.0732206866666666    0.8305171533333333    0.5000000000000000 C
   0.4065540200000000    0.1638504866666667    0.5000000000000000 C
   0.4065540200000000    0.4971838200000001    0.5000000000000000 C
   0.4065540200000001    0.8305171533333333    0.5000000000000000 C
   0.7398873533333332    0.1638504866666667    0.5000000000000000 C
   0.7398873533333334    0.4971838200000001    0.5000000000000000 C
   0.7398873533333333    0.8305171533333333    0.5000000000000000 C
   0.0870455700000000    0.1761392733333333    0.5000000000000000 C
   0.0870455700000000    0.5094726066666667    0.5000000000000000 C
   0.0870455699999999    0.8428059400000001    0.5000000000000000 C
   0.4203789033333333    0.1761392733333333    0.5000000000000000 C
   0.4203789033333334    0.5094726066666667    0.5000000000000000 C
   0.4203789033333333    0.8428059400000001    0.5000000000000000 C
   0.7537122366666666    0.1761392733333333    0.5000000000000000 C
   0.7537122366666664    0.5094726066666667    0.5000000000000000 C
   0.7537122366666665    0.8428059400000001    0.5000000000000000 C
   0.1008704566666667    0.1884280600000000    0.5000000000000000 C
   0.1008704566666668    0.5217613933333333    0.5000000000000000 C
   0.1008704566666666    0.8550947266666667    0.5000000000000000 C
   0.4342037900000000    0.1884280600000000    0.5000000000000000 C
   0.4342037900000001    0.5217613933333333    0.5000000000000000 C
   0.4342037900000000    0.8550947266666667    0.5000000000000000 C
   0.7675371233333333    0.1884280600000000    0.5000000000000000 C
   0.7675371233333331    0.5217613933333333    0.5000000000000000 C
   0.7675371233333329    0.8550947266666667    0.5000000000000000 C
   0.1146953400000000    0.2007168466666667    0.5000000000000000 C
   0.1146953400000001    0.5340501800000000    0.5000000000000000 C
   0.1146953400000000    0.8673835133333335    0.5000000000000000 C
   0.4480286733333333    0.2007168466666667    0.5000000000000000 C
   0.4480286733333332    0.5340501800000000    0.5000000000000000 C
   0.4480286733333333    0.8673835133333335    0.5000000000000000 C
   0.7813620066666667    0.2007168466666667    0.5000000000000000 C
   0.7813620066666666    0.5340501800000000    0.5000000000000000 C
   0.7813620066666667    0.8673835133333335    0.5000000000000000 C
   0.1285202266666667    0.2130056333333334    0.5000000000000000 C
   0.1285202266666667    0.5463389666666667    0.5000000000000000 C
   0.1285202266666668    0.8796723000000000    0.5000000000000000 C
   0.4618535600000001    0.2130056333333334    0.5000000000000000 C
   0.4618535600000000    0.5463389666666667    0.5000000000000000 C
   0.4618535600000001    0.8796723000000000    0.5000000000000000 C
   0.7951868933333333    0.2130056333333334    0.5000000000000000 C
   0.7951868933333333    0.5463389666666667    0.5000000000000000 C
   0.7951868933333334    0.8796723000000000    0.5000000000000000 C
   0.1423451100000001    0.2252944200000000    0.5000000000000000 C
   0.1423451100000001    0.5586277533333334    0.5000000000000000 C
   0.1423451100000001    0.8919610866666666    0.5000000000000000 C
   0.4756784433333334    0.2252944200000000    0.5000000000000000 C
   0.4756784433333334    0.5586277533333334    0.5000000000000000 C
   0.4756784433333333    0.8919610866666666    0.5000000000000000 C
   0.8090117766666665    0.2252944200000000    0.5000000000000000 C
   0.8090117766666665    0.5586277533333334    0.5000000000000000 C
   0.8090117766666663    0.8919610866666666    0.5000000000000000 C
   0.1561699933333334    0.2375832066666667    0.5000000000000000 C
   0.1561699933333334    0.5709165399999999    0.5000000000000000 C
   0.1561699933333333    0.9042498733333334    0.5000000000000000 C
   0.4895033266666666    0.2375832066666667    0.5000000000000000 C
   0.4895033266666666    0.5709165399999999    0.5000000000000000 C
   0.4895033266666666    0.9042498733333334    0.5000000000000000 C
   0.8228366599999998    0.2375832066666667    0.5000000000000000 C
   0.8228366600000000    0.5709165399999999    0.5000000000000000 C
   0.8228366599999999    0.9042498733333334    0.5000000000000000 C
   0.1699948800000001    0.2498719933333333    0.5000000000000000 C
   0.1699948800000001    0.5832053266666667    0.5000000000000000 C
   0.1699948800000001    0.9165386599999998    0.5000000000000000 C
   0.5033282133333333    0.2498719933333333    0.5000000000000000 C
   0.5033282133333332    0.5832053266666667    0.5000000000000000 C
   0.5033282133333336    0.9165386599999998    0.5000000000000000 C
   0.8366615466666667    0.2498719933333333    0.5000000000000000 C
   0.8366615466666666    0.5832053266666667    0.5000000000000000 C
   0.8366615466666666    0.9165386599999998    0.5000000000000000 C
   0.1838197633333334    0.2621607766666667    0.5000000000000000 C
   0.1838197633333334    0.5954941100000001    0.5000000000000000 C
   0.1838197633333334    0.9288274433333333    0.5000000000000000 C
   0.5171530966666666    0.2621607766666667    0.5000000000000000 C
   0.5171530966666665    0.5954941100000001    0.5000000000000000 C
   0.5171530966666666    0.9288274433333333    0.5000000000000000 C
   0.8504864299999999    0.2621607766666667    0.5000000000000000 C
   0.8504864299999999    0.5954941100000001    0.5000000000000000 C
   0.8504864299999998    0.9288274433333333    0.5000000000000000 C
   0.1976446500000001    0.2744495633333333    0.5000000000000000 C
   0.1976446500000000    0.6077828966666666    0.5000000000000000 C
   0.1976446500000000    0.9411162300000001    0.5000000000000000 C
   0.5309779833333333    0.2744495633333333    0.5000000000000000 C
   0.5309779833333332    0.6077828966666666    0.5000000000000000 C
   0.5309779833333335    0.9411162300000001    0.5000000000000000 C
   0.8643113166666666    0.2744495633333333    0.5000000000000000 C
   0.8643113166666666    0.6077828966666666    0.5000000000000000 C
   0.8643113166666665    0.9411162300000001    0.5000000000000000 C
   0.2114695333333334    0.2867383500000000    0.5000000000000000 C
   0.2114695333333334    0.6200716833333333    0.5000000000000000 C
   0.2114695333333333    0.9534050166666667    0.5000000000000000 C
   0.5448028666666668    0.2867383500000000    0.5000000000000000 C
   0.5448028666666667    0.6200716833333333    0.5000000000000000 C
   0.5448028666666667    0.9534050166666667    0.5000000000000000 C
   0.8781361999999998    0.2867383500000000    0.5000000000000000 C
   0.8781361999999997    0.6200716833333333    0.5000000000000000 C
   0.8781361999999997    0.9534050166666667    0.5000000000000000 C
   0.2252944200000001    0.2990271366666666    0.5000000000000000 C
   0.2252944200000000    0.6323604700000000    0.5000000000000000 C
   0.2252944200000000    0.9656938033333332    0.5000000000000000 C
   0.5586277533333334    0.2990271366666666    0.5000000000000000 C
   0.5586277533333331    0.6323604700000000    0.5000000000000000 C
   0.5586277533333334    0.9656938033333332    0.5000000000000000 C
   0.8919610866666665    0.2990271366666666    0.5000000000000000 C
   0.8919610866666665    0.6323604700000000    0.5000000000000000 C
   0.8919610866666664    0.9656938033333332    0.5000000000000000 C
   0.2391193033333333    0.3113159233333333    0.5000000000000000 C
   0.2391193033333334    0.6446492566666667    0.5000000000000000 C
   0.2391193033333335    0.9779825900000000    0.5000000000000000 C
   0.5724526366666665    0.3113159233333333    0.5000000000000000 C
   0.5724526366666667    0.6446492566666667    0.5000000000000000 C
   0.5724526366666668    0.9779825900000000    0.5000000000000000 C
   0.9057859699999999    0.3113159233333333    0.5000000000000000 C
   0.9057859700000001    0.6446492566666667    0.5000000000000000 C
   0.9057859699999998    0.9779825900000000    0.5000000000000000 C
   0.2529441900000001    0.3236047100000000    0.5000000000000000 C
   0.2529441900000000    0.6569380433333334    0.5000000000000000 C
   0.2529441900000001    0.9902713766666668    0.5000000000000000 C
   0.5862775233333334    0.3236047100000000    0.5000000000000000 C
   0.5862775233333333    0.6569380433333334    0.5000000000000000 C
   0.5862775233333337    0.9902713766666668    0.5000000000000000 C
   0.9196108566666663    0.3236047100000000    0.5000000000000000 C
   0.9196108566666664    0.6569380433333334    0.5000000000000000 C
   0.9196108566666668    0.9902713766666668    0.5000000000000000 C
   0.0163850500000000    0.0762928833333333    0.5000000000000000 C
   0.0163850500000000    0.4096262166666667    0.5000000000000000 C
   0.0163850500000000    0.7429595499999999    0.5000000000000000 C
   0.3497183833333333    0.0762928833333333    0.5000000000000000 C
   0.3497183833333334    0.4096262166666667    0.5000000000000000 C
   0.3497183833333334    0.7429595499999999    0.5000000000000000 C
   0.6830517166666665    0.0762928833333333    0.5000000000000000 C
   0.6830517166666665    0.4096262166666667    0.5000000000000000 C
   0.6830517166666666    0.7429595499999999    0.5000000000000000 C
   0.0302099333333333    0.0885816700000000    0.5000000000000000 C
   0.0302099333333333    0.4219150033333334    0.5000000000000000 C
   0.0302099333333334    0.7552483366666668    0.5000000000000000 C
   0.3635432666666666    0.0885816700000000    0.5000000000000000 C
   0.3635432666666666    0.4219150033333334    0.5000000000000000 C
   0.3635432666666666    0.7552483366666668    0.5000000000000000 C
   0.6968765999999998    0.0885816700000000    0.5000000000000000 C
   0.6968765999999998    0.4219150033333334    0.5000000000000000 C
   0.6968765999999998    0.7552483366666668    0.5000000000000000 C
   0.0440348166666667    0.1008704566666667    0.5000000000000000 C
   0.0440348166666667    0.4342037900000000    0.5000000000000000 C
   0.0440348166666666    0.7675371233333333    0.5000000000000000 C
   0.3773681500000000    0.1008704566666667    0.5000000000000000 C
   0.3773681500000000    0.4342037900000000    0.5000000000000000 C
   0.3773681500000001    0.7675371233333333    0.5000000000000000 C
   0.7107014833333333    0.1008704566666667    0.5000000000000000 C
   0.7107014833333332    0.4342037900000000    0.5000000000000000 C
   0.7107014833333331    0.7675371233333333    0.5000000000000000 C
   0.0578597033333333    0.1131592433333333    0.5000000000000000 C
   0.0578597033333334    0.4464925766666666    0.5000000000000000 C
   0.0578597033333333    0.7798259100000001    0.5000000000000000 C
   0.3911930366666666    0.1131592433333333    0.5000000000000000 C
   0.3911930366666667    0.4464925766666666    0.5000000000000000 C
   0.3911930366666667    0.7798259100000001    0.5000000000000000 C
   0.7245263700000000    0.1131592433333333    0.5000000000000000 C
   0.7245263699999998    0.4464925766666666    0.5000000000000000 C
   0.7245263699999998    0.7798259100000001    0.5000000000000000 C
   0.0716845866666667    0.1254480300000000    0.5000000000000000 C
   0.0716845866666667    0.4587813633333334    0.5000000000000000 C
   0.0716845866666667    0.7921146966666666    0.5000000000000000 C
   0.4050179199999999    0.1254480300000000    0.5000000000000000 C
   0.4050179199999999    0.4587813633333334    0.5000000000000000 C
   0.4050179200000000    0.7921146966666666    0.5000000000000000 C
   0.7383512533333332    0.1254480300000000    0.5000000000000000 C
   0.7383512533333332    0.4587813633333334    0.5000000000000000 C
   0.7383512533333331    0.7921146966666666    0.5000000000000000 C
   0.0855094733333334    0.1377368166666667    0.5000000000000000 C
   0.0855094733333334    0.4710701500000000    0.5000000000000000 C
   0.0855094733333334    0.8044034833333334    0.5000000000000000 C
   0.4188428066666666    0.1377368166666667    0.5000000000000000 C
   0.4188428066666667    0.4710701500000000    0.5000000000000000 C
   0.4188428066666667    0.8044034833333334    0.5000000000000000 C
   0.7521761400000000    0.1377368166666667    0.5000000000000000 C
   0.7521761399999998    0.4710701500000000    0.5000000000000000 C
   0.7521761399999999    0.8044034833333334    0.5000000000000000 C
   0.0993343566666667    0.1500256000000000    0.5000000000000000 C
   0.0993343566666667    0.4833589333333333    0.5000000000000000 C
   0.0993343566666667    0.8166922666666668    0.5000000000000000 C
   0.4326676899999998    0.1500256000000000    0.5000000000000000 C
   0.4326676900000000    0.4833589333333333    0.5000000000000000 C
   0.4326676900000000    0.8166922666666668    0.5000000000000000 C
   0.7660010233333332    0.1500256000000000    0.5000000000000000 C
   0.7660010233333334    0.4833589333333333    0.5000000000000000 C
   0.7660010233333330    0.8166922666666668    0.5000000000000000 C
   0.1131592433333334    0.1623143866666666    0.5000000000000000 C
   0.1131592433333334    0.4956477200000000    0.5000000000000000 C
   0.1131592433333335    0.8289810533333333    0.5000000000000000 C
   0.4464925766666667    0.1623143866666666    0.5000000000000000 C
   0.4464925766666668    0.4956477200000000    0.5000000000000000 C
   0.4464925766666668    0.8289810533333333    0.5000000000000000 C
   0.7798259099999998    0.1623143866666666    0.5000000000000000 C
   0.7798259100000000    0.4956477200000000    0.5000000000000000 C
   0.7798259099999999    0.8289810533333333    0.5000000000000000 C
   0.1269841266666667    0.1746031733333333    0.5000000000000000 C
   0.1269841266666666    0.5079365066666667    0.5000000000000000 C
   0.1269841266666668    0.8412698399999999    0.5000000000000000 C
   0.4603174600000000    0.1746031733333333    0.5000000000000000 C
   0.4603174599999999    0.5079365066666667    0.5000000000000000 C
   0.4603174600000001    0.8412698399999999    0.5000000000000000 C
   0.7936507933333332    0.1746031733333333    0.5000000000000000 C
   0.7936507933333332    0.5079365066666667    0.5000000000000000 C
   0.7936507933333331    0.8412698399999999    0.5000000000000000 C
   0.1408090133333333    0.1868919600000000    0.5000000000000000 C
   0.1408090133333335    0.5202252933333333    0.5000000000000000 C
   0.1408090133333335    0.8535586266666667    0.5000000000000000 C
   0.4741423466666667    0.1868919600000000    0.5000000000000000 C
   0.4741423466666665    0.5202252933333333    0.5000000000000000 C
   0.4741423466666669    0.8535586266666667    0.5000000000000000 C
   0.8074756799999999    0.1868919600000000    0.5000000000000000 C
   0.8074756800000001    0.5202252933333333    0.5000000000000000 C
   0.8074756800000000    0.8535586266666667    0.5000000000000000 C
   0.1546338966666667    0.1991807466666667    0.5000000000000000 C
   0.1546338966666667    0.5325140799999999    0.5000000000000000 C
   0.1546338966666666    0.8658474133333334    0.5000000000000000 C
   0.4879672300000000    0.1991807466666667    0.5000000000000000 C
   0.4879672300000000    0.5325140799999999    0.5000000000000000 C
   0.4879672300000002    0.8658474133333334    0.5000000000000000 C
   0.8213005633333332    0.1991807466666667    0.5000000000000000 C
   0.8213005633333335    0.5325140799999999    0.5000000000000000 C
   0.8213005633333332    0.8658474133333334    0.5000000000000000 C
   0.1684587800000000    0.2114695333333333    0.5000000000000000 C
   0.1684587800000000    0.5448028666666667    0.5000000000000000 C
   0.1684587799999999    0.8781362000000000    0.5000000000000000 C
   0.5017921133333333    0.2114695333333333    0.5000000000000000 C
   0.5017921133333333    0.5448028666666667    0.5000000000000000 C
   0.5017921133333335    0.8781362000000000    0.5000000000000000 C
   0.8351254466666664    0.2114695333333333    0.5000000000000000 C
   0.8351254466666664    0.5448028666666667    0.5000000000000000 C
   0.8351254466666665    0.8781362000000000    0.5000000000000000 C
   0.1822836666666667    0.2237583200000000    0.5000000000000000 C
   0.1822836666666667    0.5570916533333333    0.5000000000000000 C
   0.1822836666666667    0.8904249866666666    0.5000000000000000 C
   0.5156170000000000    0.2237583200000000    0.5000000000000000 C
   0.5156170000000000    0.5570916533333333    0.5000000000000000 C
   0.5156170000000002    0.8904249866666666    0.5000000000000000 C
   0.8489503333333334    0.2237583200000000    0.5000000000000000 C
   0.8489503333333334    0.5570916533333333    0.5000000000000000 C
   0.8489503333333330    0.8904249866666666    0.5000000000000000 C
   0.1961085500000000    0.2360471066666667    0.5000000000000000 C
   0.1961085500000000    0.5693804400000000    0.5000000000000000 C
   0.1961085499999999    0.9027137733333334    0.5000000000000000 C
   0.5294418833333332    0.2360471066666667    0.5000000000000000 C
   0.5294418833333334    0.5693804400000000    0.5000000000000000 C
   0.5294418833333334    0.9027137733333334    0.5000000000000000 C
   0.8627752166666666    0.2360471066666667    0.5000000000000000 C
   0.8627752166666663    0.5693804400000000    0.5000000000000000 C
   0.8627752166666662    0.9027137733333334    0.5000000000000000 C
   0.2099334366666667    0.2483358933333334    0.5000000000000000 C
   0.2099334366666668    0.5816692266666666    0.5000000000000000 C
   0.2099334366666665    0.9150025600000000    0.5000000000000000 C
   0.5432667699999999    0.2483358933333334    0.5000000000000000 C
   0.5432667700000000    0.5816692266666666    0.5000000000000000 C
   0.5432667700000000    0.9150025600000000    0.5000000000000000 C
   0.8766001033333332    0.2483358933333334    0.5000000000000000 C
   0.8766001033333334    0.5816692266666666    0.5000000000000000 C
   0.8766001033333330    0.9150025600000000    0.5000000000000000 C
   0.2237583200000000    0.2606246800000000    0.5000000000000000 C
   0.2237583200000000    0.5939580133333333    0.5000000000000000 C
   0.2237583200000001    0.9272913466666668    0.5000000000000000 C
   0.5570916533333333    0.2606246800000000    0.5000000000000000 C
   0.5570916533333334    0.5939580133333333    0.5000000000000000 C
   0.5570916533333332    0.9272913466666668    0.5000000000000000 C
   0.8904249866666666    0.2606246800000000    0.5000000000000000 C
   0.8904249866666665    0.5939580133333333    0.5000000000000000 C
   0.8904249866666663    0.9272913466666668    0.5000000000000000 C
   0.2375832066666667    0.2729134666666667    0.5000000000000000 C
   0.2375832066666667    0.6062468000000000    0.5000000000000000 C
   0.2375832066666668    0.9395801333333333    0.5000000000000000 C
   0.5709165400000000    0.2729134666666667    0.5000000000000000 C
   0.5709165399999999    0.6062468000000000    0.5000000000000000 C
   0.5709165399999999    0.9395801333333333    0.5000000000000000 C
   0.9042498733333331    0.2729134666666667    0.5000000000000000 C
   0.9042498733333335    0.6062468000000000    0.5000000000000000 C
   0.9042498733333332    0.9395801333333333    0.5000000000000000 C
   0.2514080900000000    0.2852022533333333    0.5000000000000000 C
   0.2514080900000001    0.6185355866666666    0.5000000000000000 C
   0.2514080900000000    0.9518689200000001    0.5000000000000000 C
   0.5847414233333333    0.2852022533333333    0.5000000000000000 C
   0.5847414233333333    0.6185355866666666    0.5000000000000000 C
   0.5847414233333336    0.9518689200000001    0.5000000000000000 C
   0.9180747566666667    0.2852022533333333    0.5000000000000000 C
   0.9180747566666666    0.6185355866666666    0.5000000000000000 C
   0.9180747566666666    0.9518689200000001    0.5000000000000000 C
   0.2652329733333333    0.2974910400000000    0.5000000000000000 C
   0.2652329733333334    0.6308243733333334    0.5000000000000000 C
   0.2652329733333334    0.9641577066666667    0.5000000000000000 C
   0.5985663066666667    0.2974910400000000    0.5000000000000000 C
   0.5985663066666668    0.6308243733333334    0.5000000000000000 C
   0.5985663066666669    0.9641577066666667    0.5000000000000000 C
   0.9318996400000000    0.2974910400000000    0.5000000000000000 C
   0.9318996399999998    0.6308243733333334    0.5000000000000000 C
   0.9318996399999999    0.9641577066666667    0.5000000000000000 C
   0.2790578600000000    0.3097798266666666    0.5000000000000000 C
   0.2790578600000001    0.6431131600000000    0.5000000000000000 C
   0.2790578600000000    0.9764464933333334    0.5000000000000000 C
   0.6123911933333333    0.3097798266666666    0.5000000000000000 C
   0.6123911933333333    0.6431131600000000    0.5000000000000000 C
   0.6123911933333333    0.9764464933333334    0.5000000000000000 C
   0.9457245266666666    0.3097798266666666    0.5000000000000000 C
   0.9457245266666670    0.6431131600000000    0.5000000000000000 C
   0.9457245266666667    0.9764464933333334    0.5000000000000000 C
   0.2928827433333333    0.3220686133333333    0.5000000000000000 C
   0.2928827433333334    0.6554019466666666    0.5000000000000000 C
   0.2928827433333334    0.9887352800000000    0.5000000000000000 C
   0.6262160766666666    0.3220686133333333    0.5000000000000000 C
   0.6262160766666666    0.6554019466666666    0.5000000000000000 C
   0.6262160766666668    0.9887352800000000    0.5000000000000000 C
   0.9595494100000002    0.3220686133333333    0.5000000000000000 C
   0.9595494099999997    0.6554019466666666    0.5000000000000000 C
   0.9595494100000000    0.9887352800000000    0.5000000000000000 C
   0.0148489500000000    0.0378904233333333    0.5000000000000000 C
   0.0148489500000000    0.3712237566666666    0.5000000000000000 C
   0.0148489500000000    0.7045570900000001    0.5000000000000000 C
   0.3481822833333333    0.0378904233333333    0.5000000000000000 C
   0.3481822833333333    0.3712237566666666    0.5000000000000000 C
   0.3481822833333334    0.7045570900000001    0.5000000000000000 C
   0.6815156166666666    0.0378904233333333    0.5000000000000000 C
   0.6815156166666666    0.3712237566666666    0.5000000000000000 C
   0.6815156166666664    0.7045570900000001    0.5000000000000000 C
   0.0286738366666667    0.0501792100000000    0.5000000000000000 C
   0.0286738366666667    0.3835125433333334    0.5000000000000000 C
   0.0286738366666667    0.7168458766666667    0.5000000000000000 C
   0.3620071699999999    0.0501792100000000    0.5000000000000000 C
   0.3620071699999999    0.3835125433333334    0.5000000000000000 C
   0.3620071699999999    0.7168458766666667    0.5000000000000000 C
   0.6953405033333331    0.0501792100000000    0.5000000000000000 C
   0.6953405033333331    0.3835125433333334    0.5000000000000000 C
   0.6953405033333333    0.7168458766666667    0.5000000000000000 C
   0.0424987200000000    0.0624679966666667    0.5000000000000000 C
   0.0424987200000001    0.3958013300000000    0.5000000000000000 C
   0.0424987200000000    0.7291346633333334    0.5000000000000000 C
   0.3758320533333333    0.0624679966666667    0.5000000000000000 C
   0.3758320533333332    0.3958013300000000    0.5000000000000000 C
   0.3758320533333334    0.7291346633333334    0.5000000000000000 C
   0.7091653866666667    0.0624679966666667    0.5000000000000000 C
   0.7091653866666666    0.3958013300000000    0.5000000000000000 C
   0.7091653866666667    0.7291346633333334    0.5000000000000000 C
   0.0563236033333333    0.0747567833333333    0.5000000000000000 C
   0.0563236033333333    0.4080901166666667    0.5000000000000000 C
   0.0563236033333334    0.7414234500000001    0.5000000000000000 C
   0.3896569366666667    0.0747567833333333    0.5000000000000000 C
   0.3896569366666666    0.4080901166666667    0.5000000000000000 C
   0.3896569366666667    0.7414234500000001    0.5000000000000000 C
   0.7229902699999999    0.0747567833333333    0.5000000000000000 C
   0.7229902699999999    0.4080901166666667    0.5000000000000000 C
   0.7229902699999999    0.7414234500000001    0.5000000000000000 C
   0.0701484900000000    0.0870455700000000    0.5000000000000000 C
   0.0701484900000000    0.4203789033333333    0.5000000000000000 C
   0.0701484900000000    0.7537122366666666    0.5000000000000000 C
   0.4034818233333333    0.0870455700000000    0.5000000000000000 C
   0.4034818233333332    0.4203789033333333    0.5000000000000000 C
   0.4034818233333334    0.7537122366666666    0.5000000000000000 C
   0.7368151566666666    0.0870455700000000    0.5000000000000000 C
   0.7368151566666666    0.4203789033333333    0.5000000000000000 C
   0.7368151566666666    0.7537122366666666    0.5000000000000000 C
   0.0839733733333333    0.0993343566666667    0.5000000000000000 C
   0.0839733733333334    0.4326676900000000    0.5000000000000000 C
   0.0839733733333334    0.7660010233333333    0.5000000000000000 C
   0.4173067066666667    0.0993343566666667    0.5000000000000000 C
   0.4173067066666666    0.4326676900000000    0.5000000000000000 C
   0.4173067066666667    0.7660010233333333    0.5000000000000000 C
   0.7506400400000000    0.0993343566666667    0.5000000000000000 C
   0.7506400400000000    0.4326676900000000    0.5000000000000000 C
   0.7506400400000000    0.7660010233333333    0.5000000000000000 C
   0.0977982600000000    0.1116231433333334    0.5000000000000000 C
   0.0977982600000000    0.4449564766666667    0.5000000000000000 C
   0.0977982600000001    0.7782898100000000    0.5000000000000000 C
   0.4311315933333334    0.1116231433333334    0.5000000000000000 C
   0.4311315933333332    0.4449564766666667    0.5000000000000000 C
   0.4311315933333333    0.7782898100000000    0.5000000000000000 C
   0.7644649266666664    0.1116231433333334    0.5000000000000000 C
   0.7644649266666668    0.4449564766666667    0.5000000000000000 C
   0.7644649266666665    0.7782898100000000    0.5000000000000000 C
   0.1116231433333334    0.1239119300000000    0.5000000000000000 C
   0.1116231433333333    0.4572452633333333    0.5000000000000000 C
   0.1116231433333333    0.7905785966666667    0.5000000000000000 C
   0.4449564766666667    0.1239119300000000    0.5000000000000000 C
   0.4449564766666666    0.4572452633333333    0.5000000000000000 C
   0.4449564766666668    0.7905785966666667    0.5000000000000000 C
   0.7782898100000001    0.1239119300000000    0.5000000000000000 C
   0.7782898099999997    0.4572452633333333    0.5000000000000000 C
   0.7782898099999997    0.7905785966666667    0.5000000000000000 C
   0.1254480300000000    0.1362007166666667    0.5000000000000000 C
   0.1254480300000001    0.4695340500000000    0.5000000000000000 C
   0.1254480300000002    0.8028673833333332    0.5000000000000000 C
   0.4587813633333334    0.1362007166666667    0.5000000000000000 C
   0.4587813633333332    0.4695340500000000    0.5000000000000000 C
   0.4587813633333335    0.8028673833333332    0.5000000000000000 C
   0.7921146966666666    0.1362007166666667    0.5000000000000000 C
   0.7921146966666666    0.4695340500000000    0.5000000000000000 C
   0.7921146966666666    0.8028673833333332    0.5000000000000000 C
   0.1392729133333334    0.1484895033333333    0.5000000000000000 C
   0.1392729133333333    0.4818228366666667    0.5000000000000000 C
   0.1392729133333334    0.8151561700000001    0.5000000000000000 C
   0.4726062466666667    0.1484895033333333    0.5000000000000000 C
   0.4726062466666667    0.4818228366666667    0.5000000000000000 C
   0.4726062466666667    0.8151561700000001    0.5000000000000000 C
   0.8059395800000000    0.1484895033333333    0.5000000000000000 C
   0.8059395800000000    0.4818228366666667    0.5000000000000000 C
   0.8059395799999999    0.8151561700000001    0.5000000000000000 C
   0.1530977966666668    0.1607782900000000    0.5000000000000000 C
   0.1530977966666667    0.4941116233333334    0.5000000000000000 C
   0.1530977966666668    0.8274449566666666    0.5000000000000000 C
   0.4864311300000001    0.1607782900000000    0.5000000000000000 C
   0.4864311300000000    0.4941116233333334    0.5000000000000000 C
   0.4864311300000002    0.8274449566666666    0.5000000000000000 C
   0.8197644633333333    0.1607782900000000    0.5000000000000000 C
   0.8197644633333333    0.4941116233333334    0.5000000000000000 C
   0.8197644633333334    0.8274449566666666    0.5000000000000000 C
   0.1669226833333334    0.1730670766666666    0.5000000000000000 C
   0.1669226833333334    0.5064004099999999    0.5000000000000000 C
   0.1669226833333334    0.8397337433333334    0.5000000000000000 C
   0.5002560166666667    0.1730670766666666    0.5000000000000000 C
   0.5002560166666666    0.5064004099999999    0.5000000000000000 C
   0.5002560166666666    0.8397337433333334    0.5000000000000000 C
   0.8335893499999999    0.1730670766666666    0.5000000000000000 C
   0.8335893499999998    0.5064004099999999    0.5000000000000000 C
   0.8335893500000000    0.8397337433333334    0.5000000000000000 C
   0.1807475666666667    0.1853558633333333    0.5000000000000000 C
   0.1807475666666667    0.5186891966666666    0.5000000000000000 C
   0.1807475666666667    0.8520225300000001    0.5000000000000000 C
   0.5140809000000001    0.1853558633333333    0.5000000000000000 C
   0.5140808999999998    0.5186891966666666    0.5000000000000000 C
   0.5140808999999998    0.8520225300000001    0.5000000000000000 C
   0.8474142333333333    0.1853558633333333    0.5000000000000000 C
   0.8474142333333332    0.5186891966666666    0.5000000000000000 C
   0.8474142333333332    0.8520225300000001    0.5000000000000000 C
   0.1945724533333333    0.1976446500000000    0.5000000000000000 C
   0.1945724533333334    0.5309779833333333    0.5000000000000000 C
   0.1945724533333333    0.8643113166666668    0.5000000000000000 C
   0.5279057866666667    0.1976446500000000    0.5000000000000000 C
   0.5279057866666665    0.5309779833333333    0.5000000000000000 C
   0.5279057866666667    0.8643113166666668    0.5000000000000000 C
   0.8612391200000000    0.1976446500000000    0.5000000000000000 C
   0.8612391200000000    0.5309779833333333    0.5000000000000000 C
   0.8612391199999999    0.8643113166666668    0.5000000000000000 C
   0.2083973366666667    0.2099334366666667    0.5000000000000000 C
   0.2083973366666667    0.5432667700000000    0.5000000000000000 C
   0.2083973366666667    0.8766001033333333    0.5000000000000000 C
   0.5417306700000000    0.2099334366666667    0.5000000000000000 C
   0.5417306700000000    0.5432667700000000    0.5000000000000000 C
   0.5417306700000000    0.8766001033333333    0.5000000000000000 C
   0.8750640033333332    0.2099334366666667    0.5000000000000000 C
   0.8750640033333333    0.5432667700000000    0.5000000000000000 C
   0.8750640033333332    0.8766001033333333    0.5000000000000000 C
   0.2222222222222223    0.2222222222222222    0.5000000000000000 C
   0.2222222222222222    0.5555555555555556    0.5000000000000000 C
   0.2222222222222223    0.8888888888888888    0.5000000000000000 C
   0.5555555555555552    0.2222222222222222    0.5000000000000000 C
   0.5555555555555554    0.5555555555555556    0.5000000000000000 C
   0.5555555555555558    0.8888888888888888    0.5000000000000000 C
   0.8888888888888888    0.2222222222222222    0.5000000000000000 C
   0.8888888888888890    0.5555555555555556    0.5000000000000000 C
   0.8888888888888891    0.8888888888888888    0.5000000000000000 C
   0.2360471066666667    0.2345110100000000    0.5000000000000000 C
   0.2360471066666667    0.5678443433333333    0.5000000000000000 C
   0.2360471066666667    0.9011776766666667    0.5000000000000000 C
   0.5693804399999999    0.2345110100000000    0.5000000000000000 C
   0.5693804399999999    0.5678443433333333    0.5000000000000000 C
   0.5693804400000000    0.9011776766666667    0.5000000000000000 C
   0.9027137733333334    0.2345110100000000    0.5000000000000000 C
   0.9027137733333335    0.5678443433333333    0.5000000000000000 C
   0.9027137733333332    0.9011776766666667    0.5000000000000000 C
   0.2498719933333334    0.2467997966666667    0.5000000000000000 C
   0.2498719933333334    0.5801331300000000    0.5000000000000000 C
   0.2498719933333334    0.9134664633333335    0.5000000000000000 C
   0.5832053266666666    0.2467997966666667    0.5000000000000000 C
   0.5832053266666665    0.5801331300000000    0.5000000000000000 C
   0.5832053266666667    0.9134664633333335    0.5000000000000000 C
   0.9165386600000001    0.2467997966666667    0.5000000000000000 C
   0.9165386599999998    0.5801331300000000    0.5000000000000000 C
   0.9165386600000002    0.9134664633333335    0.5000000000000000 C
   0.2636968766666667    0.2590885833333333    0.5000000000000000 C
   0.2636968766666666    0.5924219166666667    0.5000000000000000 C
   0.2636968766666667    0.9257552500000000    0.5000000000000000 C
   0.5970302099999998    0.2590885833333333    0.5000000000000000 C
   0.5970302099999999    0.5924219166666667    0.5000000000000000 C
   0.5970302100000002    0.9257552500000000    0.5000000000000000 C
   0.9303635433333333    0.2590885833333333    0.5000000000000000 C
   0.9303635433333334    0.5924219166666667    0.5000000000000000 C
   0.9303635433333335    0.9257552500000000    0.5000000000000000 C
   0.2775217600000000    0.2713773666666667    0.5000000000000000 C
   0.2775217600000001    0.6047107000000000    0.5000000000000000 C
   0.2775217600000002    0.9380440333333333    0.5000000000000000 C
   0.6108550933333334    0.2713773666666667    0.5000000000000000 C
   0.6108550933333333    0.6047107000000000    0.5000000000000000 C
   0.6108550933333333    0.9380440333333333    0.5000000000000000 C
   0.9441884266666666    0.2713773666666667    0.5000000000000000 C
   0.9441884266666665    0.6047107000000000    0.5000000000000000 C
   0.9441884266666664    0.9380440333333333    0.5000000000000000 C
   0.2913466466666667    0.2836661533333333    0.5000000000000000 C
   0.2913466466666668    0.6169994866666666    0.5000000000000000 C
   0.2913466466666668    0.9503328200000000    0.5000000000000000 C
   0.6246799800000002    0.2836661533333333    0.5000000000000000 C
   0.6246799800000001    0.6169994866666666    0.5000000000000000 C
   0.6246799799999999    0.9503328200000000    0.5000000000000000 C
   0.9580133133333333    0.2836661533333333    0.5000000000000000 C
   0.9580133133333334    0.6169994866666666    0.5000000000000000 C
   0.9580133133333332    0.9503328200000000    0.5000000000000000 C
   0.3051715300000000    0.2959549400000000    0.5000000000000000 C
   0.3051715300000001    0.6292882733333333    0.5000000000000000 C
   0.3051715300000002    0.9626216066666666    0.5000000000000000 C
   0.6385048633333332    0.2959549400000000    0.5000000000000000 C
   0.6385048633333332    0.6292882733333333    0.5000000000000000 C
   0.6385048633333335    0.9626216066666666    0.5000000000000000 C
   0.9718381966666667    0.2959549400000000    0.5000000000000000 C
   0.9718381966666668    0.6292882733333333    0.5000000000000000 C
   0.9718381966666667    0.9626216066666666    0.5000000000000000 C
   0.3189964166666667    0.3082437266666667    0.5000000000000000 C
   0.3189964166666667    0.6415770600000000    0.5000000000000000 C
   0.3189964166666667    0.9749103933333333    0.5000000000000000 C
   0.6523297499999999    0.3082437266666667    0.5000000000000000 C
   0.6523297499999998    0.6415770600000000    0.5000000000000000 C
   0.6523297500000003    0.9749103933333333    0.5000000000000000 C
   0.9856630833333334    0.3082437266666667    0.5000000000000000 C
   0.9856630833333334    0.6415770600000000    0.5000000000000000 C
   0.9856630833333335    0.9749103933333333    0.5000000000000000 C
   0.3328213000000000    0.3205325133333334    0.5000000000000000 C
   0.3328213000000000    0.6538658466666666    0.5000000000000000 C
   0.3328212999999999    0.9871991800000001    0.5000000000000000 C
   0.6661546333333332    0.3205325133333334    0.5000000000000000 C
   0.6661546333333331    0.6538658466666666    0.5000000000000000 C
   0.6661546333333336    0.9871991800000001    0.5000000000000000 C
   0.9994879666666666    0.3205325133333334    0.5000000000000000 C
   0.9994879666666667    0.6538658466666666    0.5000000000000000 C
   0.9994879666666666    0.9871991800000001    0.5000000000000000 C
   0.0133128533333334    0.3328213000000000    0.5000000000000000 C
   0.0133128533333334    0.6661546333333332    0.5000000000000000 C
   0.0133128533333334    0.9994879666666666    0.5000000000000000 C
   0.3466461866666667    0.3328213000000000    0.5000000000000000 C
   0.3466461866666667    0.6661546333333332    0.5000000000000000 C
   0.3466461866666667    0.9994879666666666    0.5000000000000000 C
   0.6799795199999999    0.3328213000000000    0.5000000000000000 C
   0.6799795200000002    0.6661546333333332    0.5000000000000000 C
   0.6799795199999997    0.9994879666666666    0.5000000000000000 C
   0.0271377366666667    0.0117767533333333    0.5000000000000000 C
   0.0271377366666666    0.3451100866666668    0.5000000000000000 C
   0.0271377366666668    0.6784434199999999    0.5000000000000000 C
   0.3604710700000000    0.0117767533333333    0.5000000000000000 C
   0.3604710700000000    0.3451100866666668    0.5000000000000000 C
   0.3604710700000001    0.6784434199999999    0.5000000000000000 C
   0.6938044033333332    0.0117767533333333    0.5000000000000000 C
   0.6938044033333332    0.3451100866666668    0.5000000000000000 C
   0.6938044033333330    0.6784434199999999    0.5000000000000000 C
   0.0409626200000000    0.0240655400000000    0.5000000000000000 C
   0.0409626200000000    0.3573988733333333    0.5000000000000000 C
   0.0409626200000000    0.6907322066666668    0.5000000000000000 C
   0.3742959533333333    0.0240655400000000    0.5000000000000000 C
   0.3742959533333332    0.3573988733333333    0.5000000000000000 C
   0.3742959533333333    0.6907322066666668    0.5000000000000000 C
   0.7076292866666665    0.0240655400000000    0.5000000000000000 C
   0.7076292866666665    0.3573988733333333    0.5000000000000000 C
   0.7076292866666666    0.6907322066666668    0.5000000000000000 C
   0.0547875066666667    0.0363543266666667    0.5000000000000000 C
   0.0547875066666667    0.3696876600000000    0.5000000000000000 C
   0.0547875066666667    0.7030209933333333    0.5000000000000000 C
   0.3881208399999999    0.0363543266666667    0.5000000000000000 C
   0.3881208400000000    0.3696876600000000    0.5000000000000000 C
   0.3881208399999999    0.7030209933333333    0.5000000000000000 C
   0.7214541733333332    0.0363543266666667    0.5000000000000000 C
   0.7214541733333331    0.3696876600000000    0.5000000000000000 C
   0.7214541733333333    0.7030209933333333    0.5000000000000000 C
   0.0686123900000000    0.0486431133333333    0.5000000000000000 C
   0.0686123900000001    0.3819764466666666    0.5000000000000000 C
   0.0686123900000000    0.7153097800000000    0.5000000000000000 C
   0.4019457233333332    0.0486431133333333    0.5000000000000000 C
   0.4019457233333332    0.3819764466666666    0.5000000000000000 C
   0.4019457233333335    0.7153097800000000    0.5000000000000000 C
   0.7352790566666665    0.0486431133333333    0.5000000000000000 C
   0.7352790566666666    0.3819764466666666    0.5000000000000000 C
   0.7352790566666663    0.7153097800000000    0.5000000000000000 C
   0.0824372766666667    0.0609319000000000    0.5000000000000000 C
   0.0824372766666667    0.3942652333333334    0.5000000000000000 C
   0.0824372766666667    0.7275985666666667    0.5000000000000000 C
   0.4157706099999999    0.0609319000000000    0.5000000000000000 C
   0.4157706099999998    0.3942652333333334    0.5000000000000000 C
   0.4157706100000003    0.7275985666666667    0.5000000000000000 C
   0.7491039433333335    0.0609319000000000    0.5000000000000000 C
   0.7491039433333333    0.3942652333333334    0.5000000000000000 C
   0.7491039433333332    0.7275985666666667    0.5000000000000000 C
   0.0962621600000000    0.0732206866666667    0.5000000000000000 C
   0.0962621600000000    0.4065540200000000    0.5000000000000000 C
   0.0962621600000001    0.7398873533333333    0.5000000000000000 C
   0.4295954933333332    0.0732206866666667    0.5000000000000000 C
   0.4295954933333334    0.4065540200000000    0.5000000000000000 C
   0.4295954933333335    0.7398873533333333    0.5000000000000000 C
   0.7629288266666665    0.0732206866666667    0.5000000000000000 C
   0.7629288266666665    0.4065540200000000    0.5000000000000000 C
   0.7629288266666666    0.7398873533333333    0.5000000000000000 C
   0.1100870466666667    0.0855094733333333    0.5000000000000000 C
   0.1100870466666668    0.4188428066666667    0.5000000000000000 C
   0.1100870466666667    0.7521761400000001    0.5000000000000000 C
   0.4434203800000000    0.0855094733333333    0.5000000000000000 C
   0.4434203800000000    0.4188428066666667    0.5000000000000000 C
   0.4434203800000000    0.7521761400000001    0.5000000000000000 C
   0.7767537133333333    0.0855094733333333    0.5000000000000000 C
   0.7767537133333332    0.4188428066666667    0.5000000000000000 C
   0.7767537133333333    0.7521761400000001    0.5000000000000000 C
   0.1239119300000001    0.0977982600000000    0.5000000000000000 C
   0.1239119300000000    0.4311315933333333    0.5000000000000000 C
   0.1239119300000002    0.7644649266666667    0.5000000000000000 C
   0.4572452633333333    0.0977982600000000    0.5000000000000000 C
   0.4572452633333333    0.4311315933333333    0.5000000000000000 C
   0.4572452633333334    0.7644649266666667    0.5000000000000000 C
   0.7905785966666665    0.0977982600000000    0.5000000000000000 C
   0.7905785966666667    0.4311315933333333    0.5000000000000000 C
   0.7905785966666665    0.7644649266666667    0.5000000000000000 C
   0.1377368166666667    0.1100870466666667    0.5000000000000000 C
   0.1377368166666667    0.4434203800000000    0.5000000000000000 C
   0.1377368166666668    0.7767537133333334    0.5000000000000000 C
   0.4710701499999999    0.1100870466666667    0.5000000000000000 C
   0.4710701499999999    0.4434203800000000    0.5000000000000000 C
   0.4710701500000000    0.7767537133333334    0.5000000000000000 C
   0.8044034833333332    0.1100870466666667    0.5000000000000000 C
   0.8044034833333333    0.4434203800000000    0.5000000000000000 C
   0.8044034833333334    0.7767537133333334    0.5000000000000000 C
   0.1515617000000000    0.1223758333333333    0.5000000000000000 C
   0.1515616999999999    0.4557091666666667    0.5000000000000000 C
   0.1515617000000001    0.7890425000000000    0.5000000000000000 C
   0.4848950333333333    0.1223758333333333    0.5000000000000000 C
   0.4848950333333332    0.4557091666666667    0.5000000000000000 C
   0.4848950333333336    0.7890425000000000    0.5000000000000000 C
   0.8182283666666665    0.1223758333333333    0.5000000000000000 C
   0.8182283666666667    0.4557091666666667    0.5000000000000000 C
   0.8182283666666667    0.7890425000000000    0.5000000000000000 C
   0.1653865833333333    0.1346646200000000    0.5000000000000000 C
   0.1653865833333334    0.4679979533333333    0.5000000000000000 C
   0.1653865833333333    0.8013312866666668    0.5000000000000000 C
   0.4987199166666667    0.1346646200000000    0.5000000000000000 C
   0.4987199166666667    0.4679979533333333    0.5000000000000000 C
   0.4987199166666668    0.8013312866666668    0.5000000000000000 C
   0.8320532499999999    0.1346646200000000    0.5000000000000000 C
   0.8320532499999999    0.4679979533333333    0.5000000000000000 C
   0.8320532500000000    0.8013312866666668    0.5000000000000000 C
   0.1792114700000000    0.1469534066666667    0.5000000000000000 C
   0.1792114700000000    0.4802867400000000    0.5000000000000000 C
   0.1792114700000001    0.8136200733333333    0.5000000000000000 C
   0.5125448033333333    0.1469534066666667    0.5000000000000000 C
   0.5125448033333333    0.4802867400000000    0.5000000000000000 C
   0.5125448033333335    0.8136200733333333    0.5000000000000000 C
   0.8458781366666667    0.1469534066666667    0.5000000000000000 C
   0.8458781366666668    0.4802867400000000    0.5000000000000000 C
   0.8458781366666669    0.8136200733333333    0.5000000000000000 C
   0.1930363533333333    0.1592421900000000    0.5000000000000000 C
   0.1930363533333333    0.4925755233333334    0.5000000000000000 C
   0.1930363533333334    0.8259088566666667    0.5000000000000000 C
   0.5263696866666666    0.1592421900000000    0.5000000000000000 C
   0.5263696866666666    0.4925755233333334    0.5000000000000000 C
   0.5263696866666666    0.8259088566666667    0.5000000000000000 C
   0.8597030199999999    0.1592421900000000    0.5000000000000000 C
   0.8597030199999999    0.4925755233333334    0.5000000000000000 C
   0.8597030199999999    0.8259088566666667    0.5000000000000000 C
   0.2068612400000000    0.1715309766666667    0.5000000000000000 C
   0.2068612400000000    0.5048643100000000    0.5000000000000000 C
   0.2068612400000001    0.8381976433333332    0.5000000000000000 C
   0.5401945733333333    0.1715309766666667    0.5000000000000000 C
   0.5401945733333333    0.5048643100000000    0.5000000000000000 C
   0.5401945733333335    0.8381976433333332    0.5000000000000000 C
   0.8735279066666666    0.1715309766666667    0.5000000000000000 C
   0.8735279066666665    0.5048643100000000    0.5000000000000000 C
   0.8735279066666666    0.8381976433333332    0.5000000000000000 C
   0.2206861233333334    0.1838197633333334    0.5000000000000000 C
   0.2206861233333333    0.5171530966666668    0.5000000000000000 C
   0.2206861233333333    0.8504864300000000    0.5000000000000000 C
   0.5540194566666666    0.1838197633333334    0.5000000000000000 C
   0.5540194566666666    0.5171530966666668    0.5000000000000000 C
   0.5540194566666669    0.8504864300000000    0.5000000000000000 C
   0.8873527900000000    0.1838197633333334    0.5000000000000000 C
   0.8873527900000000    0.5171530966666668    0.5000000000000000 C
   0.8873527900000001    0.8504864300000000    0.5000000000000000 C
   0.2345110100000000    0.1961085500000000    0.5000000000000000 C
   0.2345110100000001    0.5294418833333333    0.5000000000000000 C
   0.2345110099999999    0.8627752166666668    0.5000000000000000 C
   0.5678443433333333    0.1961085500000000    0.5000000000000000 C
   0.5678443433333334    0.5294418833333333    0.5000000000000000 C
   0.5678443433333336    0.8627752166666668    0.5000000000000000 C
   0.9011776766666665    0.1961085500000000    0.5000000000000000 C
   0.9011776766666666    0.5294418833333333    0.5000000000000000 C
   0.9011776766666665    0.8627752166666668    0.5000000000000000 C
   0.2483358933333333    0.2083973366666667    0.5000000000000000 C
   0.2483358933333333    0.5417306700000000    0.5000000000000000 C
   0.2483358933333334    0.8750640033333333    0.5000000000000000 C
   0.5816692266666668    0.2083973366666667    0.5000000000000000 C
   0.5816692266666668    0.5417306700000000    0.5000000000000000 C
   0.5816692266666670    0.8750640033333333    0.5000000000000000 C
   0.9150025600000000    0.2083973366666667    0.5000000000000000 C
   0.9150025599999997    0.5417306700000000    0.5000000000000000 C
   0.9150025600000000    0.8750640033333333    0.5000000000000000 C
   0.2621607766666667    0.2206861233333333    0.5000000000000000 C
   0.2621607766666667    0.5540194566666666    0.5000000000000000 C
   0.2621607766666668    0.8873527899999999    0.5000000000000000 C
   0.5954941100000001    0.2206861233333333    0.5000000000000000 C
   0.5954941100000002    0.5540194566666666    0.5000000000000000 C
   0.5954941100000002    0.8873527899999999    0.5000000000000000 C
   0.9288274433333333    0.2206861233333333    0.5000000000000000 C
   0.9288274433333334    0.5540194566666666    0.5000000000000000 C
   0.9288274433333332    0.8873527899999999    0.5000000000000000 C
   0.2759856633333334    0.2329749100000000    0.5000000000000000 C
   0.2759856633333334    0.5663082433333334    0.5000000000000000 C
   0.2759856633333334    0.8996415766666667    0.5000000000000000 C
   0.6093189966666667    0.2329749100000000    0.5000000000000000 C
   0.6093189966666667    0.5663082433333334    0.5000000000000000 C
   0.6093189966666667    0.8996415766666667    0.5000000000000000 C
   0.9426523299999999    0.2329749100000000    0.5000000000000000 C
   0.9426523299999999    0.5663082433333334    0.5000000000000000 C
   0.9426523299999999    0.8996415766666667    0.5000000000000000 C
   0.2898105466666667    0.2452636966666666    0.5000000000000000 C
   0.2898105466666667    0.5785970300000000    0.5000000000000000 C
   0.2898105466666666    0.9119303633333333    0.5000000000000000 C
   0.6231438800000001    0.2452636966666666    0.5000000000000000 C
   0.6231438800000002    0.5785970300000000    0.5000000000000000 C
   0.6231438800000001    0.9119303633333333    0.5000000000000000 C
   0.9564772133333332    0.2452636966666666    0.5000000000000000 C
   0.9564772133333334    0.5785970300000000    0.5000000000000000 C
   0.9564772133333334    0.9119303633333333    0.5000000000000000 C
   0.3036354333333333    0.2575524833333333    0.5000000000000000 C
   0.3036354333333333    0.5908858166666666    0.5000000000000000 C
   0.3036354333333333    0.9242191500000001    0.5000000000000000 C
   0.6369687666666667    0.2575524833333333    0.5000000000000000 C
   0.6369687666666667    0.5908858166666666    0.5000000000000000 C
   0.6369687666666669    0.9242191500000001    0.5000000000000000 C
   0.9703021000000001    0.2575524833333333    0.5000000000000000 C
   0.9703020999999999    0.5908858166666666    0.5000000000000000 C
   0.9703020999999999    0.9242191500000001    0.5000000000000000 C
   0.3174603166666667    0.2698412700000000    0.5000000000000000 C
   0.3174603166666667    0.6031746033333333    0.5000000000000000 C
   0.3174603166666666    0.9365079366666667    0.5000000000000000 C
   0.6507936499999999    0.2698412700000000    0.5000000000000000 C
   0.6507936499999998    0.6031746033333333    0.5000000000000000 C
   0.6507936500000000    0.9365079366666667    0.5000000000000000 C
   0.9841269833333331    0.2698412700000000    0.5000000000000000 C
   0.9841269833333334    0.6031746033333333    0.5000000000000000 C
   0.9841269833333333    0.9365079366666667    0.5000000000000000 C
   0.3312852033333333    0.2821300566666667    0.5000000000000000 C
   0.3312852033333333    0.6154633899999999    0.5000000000000000 C
   0.3312852033333332    0.9487967233333334    0.5000000000000000 C
   0.6646185366666667    0.2821300566666667    0.5000000000000000 C
   0.6646185366666668    0.6154633899999999    0.5000000000000000 C
   0.6646185366666666    0.9487967233333334    0.5000000000000000 C
   0.9979518700000000    0.2821300566666667    0.5000000000000000 C
   0.9979518699999999    0.6154633899999999    0.5000000000000000 C
   0.9979518700000001    0.9487967233333334    0.5000000000000000 C
   0.0117767533333334    0.2944188433333333    0.5000000000000000 C
   0.0117767533333333    0.6277521766666667    0.5000000000000000 C
   0.0117767533333335    0.9610855100000000    0.5000000000000000 C
   0.3451100866666666    0.2944188433333333    0.5000000000000000 C
   0.3451100866666665    0.6277521766666667    0.5000000000000000 C
   0.3451100866666668    0.9610855100000000    0.5000000000000000 C
   0.6784434200000000    0.2944188433333333    0.5000000000000000 C
   0.6784434199999999    0.6277521766666667    0.5000000000000000 C
   0.6784434199999999    0.9610855100000000    0.5000000000000000 C
   0.0670762933333333    0.0102406566666667    0.5000000000000000 C
   0.0670762933333333    0.3435739900000000    0.5000000000000000 C
   0.0670762933333334    0.6769073233333334    0.5000000000000000 C
   0.4004096266666667    0.0102406566666667    0.5000000000000000 C
   0.4004096266666667    0.3435739900000000    0.5000000000000000 C
   0.4004096266666667    0.6769073233333334    0.5000000000000000 C
   0.7337429600000001    0.0102406566666667    0.5000000000000000 C
   0.7337429600000001    0.3435739900000000    0.5000000000000000 C
   0.7337429600000001    0.6769073233333334    0.5000000000000000 C
   0.0809011766666667    0.0225294433333333    0.5000000000000000 C
   0.0809011766666668    0.3558627766666667    0.5000000000000000 C
   0.0809011766666666    0.6891961100000000    0.5000000000000000 C
   0.4142345099999999    0.0225294433333333    0.5000000000000000 C
   0.4142345099999999    0.3558627766666667    0.5000000000000000 C
   0.4142345100000001    0.6891961100000000    0.5000000000000000 C
   0.7475678433333333    0.0225294433333333    0.5000000000000000 C
   0.7475678433333333    0.3558627766666667    0.5000000000000000 C
   0.7475678433333334    0.6891961100000000    0.5000000000000000 C
   0.0947260633333333    0.0348182300000000    0.5000000000000000 C
   0.0947260633333334    0.3681515633333333    0.5000000000000000 C
   0.0947260633333333    0.7014848966666667    0.5000000000000000 C
   0.4280593966666666    0.0348182300000000    0.5000000000000000 C
   0.4280593966666666    0.3681515633333333    0.5000000000000000 C
   0.4280593966666667    0.7014848966666667    0.5000000000000000 C
   0.7613927300000001    0.0348182300000000    0.5000000000000000 C
   0.7613927300000001    0.3681515633333333    0.5000000000000000 C
   0.7613927300000000    0.7014848966666667    0.5000000000000000 C
   0.1085509466666666    0.0471070133333333    0.5000000000000000 C
   0.1085509466666666    0.3804403466666667    0.5000000000000000 C
   0.1085509466666668    0.7137736800000000    0.5000000000000000 C
   0.4418842800000000    0.0471070133333333    0.5000000000000000 C
   0.4418842800000000    0.3804403466666667    0.5000000000000000 C
   0.4418842800000001    0.7137736800000000    0.5000000000000000 C
   0.7752176133333334    0.0471070133333333    0.5000000000000000 C
   0.7752176133333334    0.3804403466666667    0.5000000000000000 C
   0.7752176133333333    0.7137736800000000    0.5000000000000000 C
   0.1223758333333334    0.0593958000000000    0.5000000000000000 C
   0.1223758333333333    0.3927291333333334    0.5000000000000000 C
   0.1223758333333333    0.7260624666666667    0.5000000000000000 C
   0.4557091666666666    0.0593958000000000    0.5000000000000000 C
   0.4557091666666666    0.3927291333333334    0.5000000000000000 C
   0.4557091666666666    0.7260624666666667    0.5000000000000000 C
   0.7890424999999999    0.0593958000000000    0.5000000000000000 C
   0.7890424999999999    0.3927291333333334    0.5000000000000000 C
   0.7890425000000000    0.7260624666666667    0.5000000000000000 C
   0.1362007166666667    0.0716845866666667    0.5000000000000000 C
   0.1362007166666667    0.4050179200000000    0.5000000000000000 C
   0.1362007166666667    0.7383512533333334    0.5000000000000000 C
   0.4695340500000000    0.0716845866666667    0.5000000000000000 C
   0.4695340500000000    0.4050179200000000    0.5000000000000000 C
   0.4695340500000000    0.7383512533333334    0.5000000000000000 C
   0.8028673833333333    0.0716845866666667    0.5000000000000000 C
   0.8028673833333334    0.4050179200000000    0.5000000000000000 C
   0.8028673833333334    0.7383512533333334    0.5000000000000000 C
   0.1500256000000000    0.0839733733333333    0.5000000000000000 C
   0.1500256000000001    0.4173067066666667    0.5000000000000000 C
   0.1500256000000001    0.7506400400000001    0.5000000000000000 C
   0.4833589333333334    0.0839733733333333    0.5000000000000000 C
   0.4833589333333334    0.4173067066666667    0.5000000000000000 C
   0.4833589333333333    0.7506400400000001    0.5000000000000000 C
   0.8166922666666665    0.0839733733333333    0.5000000000000000 C
   0.8166922666666666    0.4173067066666667    0.5000000000000000 C
   0.8166922666666665    0.7506400400000001    0.5000000000000000 C
   0.1638504866666667    0.0962621600000000    0.5000000000000000 C
   0.1638504866666666    0.4295954933333334    0.5000000000000000 C
   0.1638504866666667    0.7629288266666666    0.5000000000000000 C
   0.4971838200000001    0.0962621600000000    0.5000000000000000 C
   0.4971838200000000    0.4295954933333334    0.5000000000000000 C
   0.4971838200000002    0.7629288266666666    0.5000000000000000 C
   0.8305171533333332    0.0962621600000000    0.5000000000000000 C
   0.8305171533333332    0.4295954933333334    0.5000000000000000 C
   0.8305171533333332    0.7629288266666666    0.5000000000000000 C
   0.1776753700000001    0.1085509466666667    0.5000000000000000 C
   0.1776753700000000    0.4418842800000001    0.5000000000000000 C
   0.1776753700000001    0.7752176133333333    0.5000000000000000 C
   0.5110087033333333    0.1085509466666667    0.5000000000000000 C
   0.5110087033333333    0.4418842800000001    0.5000000000000000 C
   0.5110087033333335    0.7752176133333333    0.5000000000000000 C
   0.8443420366666666    0.1085509466666667    0.5000000000000000 C
   0.8443420366666665    0.4418842800000001    0.5000000000000000 C
   0.8443420366666669    0.7752176133333333    0.5000000000000000 C
   0.1915002566666666    0.1208397333333333    0.5000000000000000 C
   0.1915002566666667    0.4541730666666666    0.5000000000000000 C
   0.1915002566666667    0.7875064000000001    0.5000000000000000 C
   0.5248335900000000    0.1208397333333333    0.5000000000000000 C
   0.5248335900000000    0.4541730666666666    0.5000000000000000 C
   0.5248335900000000    0.7875064000000001    0.5000000000000000 C
   0.8581669233333333    0.1208397333333333    0.5000000000000000 C
   0.8581669233333332    0.4541730666666666    0.5000000000000000 C
   0.8581669233333332    0.7875064000000001    0.5000000000000000 C
   0.2053251400000000    0.1331285200000000    0.5000000000000000 C
   0.2053251400000001    0.4664618533333333    0.5000000000000000 C
   0.2053251400000001    0.7997951866666666    0.5000000000000000 C
   0.5386584733333331    0.1331285200000000    0.5000000000000000 C
   0.5386584733333331    0.4664618533333333    0.5000000000000000 C
   0.5386584733333335    0.7997951866666666    0.5000000000000000 C
   0.8719918066666665    0.1331285200000000    0.5000000000000000 C
   0.8719918066666664    0.4664618533333333    0.5000000000000000 C
   0.8719918066666665    0.7997951866666666    0.5000000000000000 C
   0.2191500266666667    0.1454173066666667    0.5000000000000000 C
   0.2191500266666667    0.4787506400000000    0.5000000000000000 C
   0.2191500266666667    0.8120839733333334    0.5000000000000000 C
   0.5524833600000001    0.1454173066666667    0.5000000000000000 C
   0.5524833600000000    0.4787506400000000    0.5000000000000000 C
   0.5524833600000000    0.8120839733333334    0.5000000000000000 C
   0.8858166933333333    0.1454173066666667    0.5000000000000000 C
   0.8858166933333332    0.4787506400000000    0.5000000000000000 C
   0.8858166933333333    0.8120839733333334    0.5000000000000000 C
   0.2329749100000001    0.1577060933333333    0.5000000000000000 C
   0.2329749100000001    0.4910394266666666    0.5000000000000000 C
   0.2329749100000001    0.8243727599999999    0.5000000000000000 C
   0.5663082433333334    0.1577060933333333    0.5000000000000000 C
   0.5663082433333333    0.4910394266666666    0.5000000000000000 C
   0.5663082433333334    0.8243727599999999    0.5000000000000000 C
   0.8996415766666664    0.1577060933333333    0.5000000000000000 C
   0.8996415766666666    0.4910394266666666    0.5000000000000000 C
   0.8996415766666667    0.8243727599999999    0.5000000000000000 C
   0.2467997966666667    0.1699948800000000    0.5000000000000000 C
   0.2467997966666667    0.5033282133333333    0.5000000000000000 C
   0.2467997966666667    0.8366615466666667    0.5000000000000000 C
   0.5801331300000001    0.1699948800000000    0.5000000000000000 C
   0.5801331300000000    0.5033282133333333    0.5000000000000000 C
   0.5801331300000000    0.8366615466666667    0.5000000000000000 C
   0.9134664633333333    0.1699948800000000    0.5000000000000000 C
   0.9134664633333333    0.5033282133333333    0.5000000000000000 C
   0.9134664633333333    0.8366615466666667    0.5000000000000000 C
   0.2606246800000001    0.1822836666666666    0.5000000000000000 C
   0.2606246800000002    0.5156170000000000    0.5000000000000000 C
   0.2606246800000001    0.8489503333333334    0.5000000000000000 C
   0.5939580133333332    0.1822836666666666    0.5000000000000000 C
   0.5939580133333332    0.5156170000000000    0.5000000000000000 C
   0.5939580133333334    0.8489503333333334    0.5000000000000000 C
   0.9272913466666666    0.1822836666666666    0.5000000000000000 C
   0.9272913466666665    0.5156170000000000    0.5000000000000000 C
   0.9272913466666665    0.8489503333333334    0.5000000000000000 C
   0.2744495633333333    0.1945724533333333    0.5000000000000000 C
   0.2744495633333333    0.5279057866666667    0.5000000000000000 C
   0.2744495633333333    0.8612391200000000    0.5000000000000000 C
   0.6077828966666666    0.1945724533333333    0.5000000000000000 C
   0.6077828966666668    0.5279057866666667    0.5000000000000000 C
   0.6077828966666667    0.8612391200000000    0.5000000000000000 C
   0.9411162299999999    0.1945724533333333    0.5000000000000000 C
   0.9411162299999998    0.5279057866666667    0.5000000000000000 C
   0.9411162299999998    0.8612391200000000    0.5000000000000000 C
   0.2882744500000000    0.2068612400000000    0.5000000000000000 C
   0.2882744500000000    0.5401945733333333    0.5000000000000000 C
   0.2882744500000001    0.8735279066666666    0.5000000000000000 C
   0.6216077833333332    0.2068612400000000    0.5000000000000000 C
   0.6216077833333332    0.5401945733333333    0.5000000000000000 C
   0.6216077833333334    0.8735279066666666    0.5000000000000000 C
   0.9549411166666665    0.2068612400000000    0.5000000000000000 C
   0.9549411166666664    0.5401945733333333    0.5000000000000000 C
   0.9549411166666665    0.8735279066666666    0.5000000000000000 C
   0.3020993333333334    0.2191500266666667    0.5000000000000000 C
   0.3020993333333335    0.5524833600000001    0.5000000000000000 C
   0.3020993333333334    0.8858166933333335    0.5000000000000000 C
   0.6354326666666665    0.2191500266666667    0.5000000000000000 C
   0.6354326666666666    0.5524833600000001    0.5000000000000000 C
   0.6354326666666669    0.8858166933333335    0.5000000000000000 C
   0.9687659999999998    0.2191500266666667    0.5000000000000000 C
   0.9687659999999998    0.5524833600000001    0.5000000000000000 C
   0.9687659999999999    0.8858166933333335    0.5000000000000000 C
   0.3159242200000001    0.2314388133333333    0.5000000000000000 C
   0.3159242200000002    0.5647721466666666    0.5000000000000000 C
   0.3159242200000001    0.8981054800000000    0.5000000000000000 C
   0.6492575533333333    0.2314388133333333    0.5000000000000000 C
   0.6492575533333333    0.5647721466666666    0.5000000000000000 C
   0.6492575533333335    0.8981054800000000    0.5000000000000000 C
   0.9825908866666666    0.2314388133333333    0.5000000000000000 C
   0.9825908866666667    0.5647721466666666    0.5000000000000000 C
   0.9825908866666667    0.8981054800000000    0.5000000000000000 C
   0.3297491033333333    0.2437276000000000    0.5000000000000000 C
   0.3297491033333335    0.5770609333333333    0.5000000000000000 C
   0.3297491033333333    0.9103942666666668    0.5000000000000000 C
   0.6630824366666668    0.2437276000000000    0.5000000000000000 C
   0.6630824366666667    0.5770609333333333    0.5000000000000000 C
   0.6630824366666668    0.9103942666666668    0.5000000000000000 C
   0.9964157699999997    0.2437276000000000    0.5000000000000000 C
   0.9964157699999999    0.5770609333333333    0.5000000000000000 C
   0.9964157700000000    0.9103942666666668    0.5000000000000000 C
   0.0102406566666667    0.2560163866666667    0.5000000000000000 C
   0.0102406566666667    0.5893497200000000    0.5000000000000000 C
   0.0102406566666668    0.9226830533333332    0.5000000000000000 C
   0.3435739900000001    0.2560163866666667    0.5000000000000000 C
   0.3435739900000001    0.5893497200000000    0.5000000000000000 C
   0.3435739900000002    0.9226830533333332    0.5000000000000000 C
   0.6769073233333333    0.2560163866666667    0.5000000000000000 C
   0.6769073233333334    0.5893497200000000    0.5000000000000000 C
   0.6769073233333333    0.9226830533333332    0.5000000000000000 C
   0.1070148500000000    0.0087045566666667    0.5000000000000000 C
   0.1070148499999999    0.3420378900000001    0.5000000000000000 C
   0.1070148500000001    0.6753712233333333    0.5000000000000000 C
   0.4403481833333333    0.0087045566666667    0.5000000000000000 C
   0.4403481833333331    0.3420378900000001    0.5000000000000000 C
   0.4403481833333333    0.6753712233333333    0.5000000000000000 C
   0.7736815166666666    0.0087045566666667    0.5000000000000000 C
   0.7736815166666665    0.3420378900000001    0.5000000000000000 C
   0.7736815166666666    0.6753712233333333    0.5000000000000000 C
   0.1208397333333334    0.0209933433333333    0.5000000000000000 C
   0.1208397333333334    0.3543266766666666    0.5000000000000000 C
   0.1208397333333333    0.6876600100000001    0.5000000000000000 C
   0.4541730666666665    0.0209933433333333    0.5000000000000000 C
   0.4541730666666666    0.3543266766666666    0.5000000000000000 C
   0.4541730666666668    0.6876600100000001    0.5000000000000000 C
   0.7875063999999997    0.0209933433333333    0.5000000000000000 C
   0.7875063999999997    0.3543266766666666    0.5000000000000000 C
   0.7875063999999998    0.6876600100000001    0.5000000000000000 C
   0.1346646200000000    0.0332821300000000    0.5000000000000000 C
   0.1346646200000001    0.3666154633333334    0.5000000000000000 C
   0.1346646200000001    0.6999487966666667    0.5000000000000000 C
   0.4679979533333332    0.0332821300000000    0.5000000000000000 C
   0.4679979533333333    0.3666154633333334    0.5000000000000000 C
   0.4679979533333334    0.6999487966666667    0.5000000000000000 C
   0.8013312866666668    0.0332821300000000    0.5000000000000000 C
   0.8013312866666666    0.3666154633333334    0.5000000000000000 C
   0.8013312866666665    0.6999487966666667    0.5000000000000000 C
   0.1484895033333333    0.0455709166666667    0.5000000000000000 C
   0.1484895033333333    0.3789042499999999    0.5000000000000000 C
   0.1484895033333334    0.7122375833333333    0.5000000000000000 C
   0.4818228366666666    0.0455709166666667    0.5000000000000000 C
   0.4818228366666667    0.3789042499999999    0.5000000000000000 C
   0.4818228366666668    0.7122375833333333    0.5000000000000000 C
   0.8151561699999998    0.0455709166666667    0.5000000000000000 C
   0.8151561699999997    0.3789042499999999    0.5000000000000000 C
   0.8151561699999997    0.7122375833333333    0.5000000000000000 C
   0.1623143866666667    0.0578597033333333    0.5000000000000000 C
   0.1623143866666667    0.3911930366666667    0.5000000000000000 C
   0.1623143866666668    0.7245263700000000    0.5000000000000000 C
   0.4956477200000000    0.0578597033333333    0.5000000000000000 C
   0.4956477200000000    0.3911930366666667    0.5000000000000000 C
   0.4956477200000001    0.7245263700000000    0.5000000000000000 C
   0.8289810533333332    0.0578597033333333    0.5000000000000000 C
   0.8289810533333329    0.3911930366666667    0.5000000000000000 C
   0.8289810533333333    0.7245263700000000    0.5000000000000000 C
   0.1761392733333333    0.0701484900000000    0.5000000000000000 C
   0.1761392733333333    0.4034818233333334    0.5000000000000000 C
   0.1761392733333334    0.7368151566666666    0.5000000000000000 C
   0.5094726066666666    0.0701484900000000    0.5000000000000000 C
   0.5094726066666666    0.4034818233333334    0.5000000000000000 C
   0.5094726066666668    0.7368151566666666    0.5000000000000000 C
   0.8428059399999999    0.0701484900000000    0.5000000000000000 C
   0.8428059399999998    0.4034818233333334    0.5000000000000000 C
   0.8428059399999996    0.7368151566666666    0.5000000000000000 C
   0.1899641566666666    0.0824372766666667    0.5000000000000000 C
   0.1899641566666666    0.4157706100000000    0.5000000000000000 C
   0.1899641566666667    0.7491039433333333    0.5000000000000000 C
   0.5232974899999999    0.0824372766666667    0.5000000000000000 C
   0.5232974900000000    0.4157706100000000    0.5000000000000000 C
   0.5232974900000001    0.7491039433333333    0.5000000000000000 C
   0.8566308233333331    0.0824372766666667    0.5000000000000000 C
   0.8566308233333333    0.4157706100000000    0.5000000000000000 C
   0.8566308233333330    0.7491039433333333    0.5000000000000000 C
   0.2037890433333333    0.0947260633333333    0.5000000000000000 C
   0.2037890433333334    0.4280593966666667    0.5000000000000000 C
   0.2037890433333334    0.7613927300000000    0.5000000000000000 C
   0.5371223766666666    0.0947260633333333    0.5000000000000000 C
   0.5371223766666665    0.4280593966666667    0.5000000000000000 C
   0.5371223766666666    0.7613927300000000    0.5000000000000000 C
   0.8704557099999999    0.0947260633333333    0.5000000000000000 C
   0.8704557099999999    0.4280593966666667    0.5000000000000000 C
   0.8704557100000000    0.7613927300000000    0.5000000000000000 C
   0.2176139266666667    0.1070148500000000    0.5000000000000000 C
   0.2176139266666667    0.4403481833333333    0.5000000000000000 C
   0.2176139266666666    0.7736815166666667    0.5000000000000000 C
   0.5509472600000000    0.1070148500000000    0.5000000000000000 C
   0.5509472600000000    0.4403481833333333    0.5000000000000000 C
   0.5509472600000002    0.7736815166666667    0.5000000000000000 C
   0.8842805933333332    0.1070148500000000    0.5000000000000000 C
   0.8842805933333332    0.4403481833333333    0.5000000000000000 C
   0.8842805933333331    0.7736815166666667    0.5000000000000000 C
   0.2314388133333334    0.1193036366666667    0.5000000000000000 C
   0.2314388133333334    0.4526369700000000    0.5000000000000000 C
   0.2314388133333334    0.7859703033333334    0.5000000000000000 C
   0.5647721466666666    0.1193036366666667    0.5000000000000000 C
   0.5647721466666666    0.4526369700000000    0.5000000000000000 C
   0.5647721466666668    0.7859703033333334    0.5000000000000000 C
   0.8981054799999998    0.1193036366666667    0.5000000000000000 C
   0.8981054799999997    0.4526369700000000    0.5000000000000000 C
   0.8981054799999997    0.7859703033333334    0.5000000000000000 C
   0.2452636966666668    0.1315924233333333    0.5000000000000000 C
   0.2452636966666666    0.4649257566666667    0.5000000000000000 C
   0.2452636966666667    0.7982590900000001    0.5000000000000000 C
   0.5785970299999998    0.1315924233333333    0.5000000000000000 C
   0.5785970299999998    0.4649257566666667    0.5000000000000000 C
   0.5785970300000002    0.7982590900000001    0.5000000000000000 C
   0.9119303633333332    0.1315924233333333    0.5000000000000000 C
   0.9119303633333331    0.4649257566666667    0.5000000000000000 C
   0.9119303633333334    0.7982590900000001    0.5000000000000000 C
   0.2590885833333333    0.1438812100000000    0.5000000000000000 C
   0.2590885833333333    0.4772145433333334    0.5000000000000000 C
   0.2590885833333335    0.8105478766666666    0.5000000000000000 C
   0.5924219166666665    0.1438812100000000    0.5000000000000000 C
   0.5924219166666665    0.4772145433333334    0.5000000000000000 C
   0.5924219166666668    0.8105478766666666    0.5000000000000000 C
   0.9257552499999999    0.1438812100000000    0.5000000000000000 C
   0.9257552499999998    0.4772145433333334    0.5000000000000000 C
   0.9257552499999998    0.8105478766666666    0.5000000000000000 C
   0.2729134666666667    0.1561699933333333    0.5000000000000000 C
   0.2729134666666668    0.4895033266666667    0.5000000000000000 C
   0.2729134666666667    0.8228366600000000    0.5000000000000000 C
   0.6062467999999999    0.1561699933333333    0.5000000000000000 C
   0.6062467999999999    0.4895033266666667    0.5000000000000000 C
   0.6062468000000001    0.8228366600000000    0.5000000000000000 C
   0.9395801333333335    0.1561699933333333    0.5000000000000000 C
   0.9395801333333333    0.4895033266666667    0.5000000000000000 C
   0.9395801333333331    0.8228366600000000    0.5000000000000000 C
   0.2867383500000000    0.1684587800000000    0.5000000000000000 C
   0.2867383500000000    0.5017921133333334    0.5000000000000000 C
   0.2867383500000000    0.8351254466666665    0.5000000000000000 C
   0.6200716833333333    0.1684587800000000    0.5000000000000000 C
   0.6200716833333333    0.5017921133333334    0.5000000000000000 C
   0.6200716833333334    0.8351254466666665    0.5000000000000000 C
   0.9534050166666668    0.1684587800000000    0.5000000000000000 C
   0.9534050166666665    0.5017921133333334    0.5000000000000000 C
   0.9534050166666664    0.8351254466666665    0.5000000000000000 C
   0.3005632366666667    0.1807475666666666    0.5000000000000000 C
   0.3005632366666666    0.5140809000000000    0.5000000000000000 C
   0.3005632366666666    0.8474142333333333    0.5000000000000000 C
   0.6338965699999999    0.1807475666666666    0.5000000000000000 C
   0.6338965700000000    0.5140809000000000    0.5000000000000000 C
   0.6338965700000003    0.8474142333333333    0.5000000000000000 C
   0.9672299033333334    0.1807475666666666    0.5000000000000000 C
   0.9672299033333330    0.5140809000000000    0.5000000000000000 C
   0.9672299033333334    0.8474142333333333    0.5000000000000000 C
   0.3143881200000001    0.1930363533333333    0.5000000000000000 C
   0.3143881200000001    0.5263696866666666    0.5000000000000000 C
   0.3143881200000001    0.8597030200000001    0.5000000000000000 C
   0.6477214533333333    0.1930363533333333    0.5000000000000000 C
   0.6477214533333333    0.5263696866666666    0.5000000000000000 C
   0.6477214533333335    0.8597030200000001    0.5000000000000000 C
   0.9810547866666665    0.1930363533333333    0.5000000000000000 C
   0.9810547866666662    0.5263696866666666    0.5000000000000000 C
   0.9810547866666666    0.8597030200000001    0.5000000000000000 C
   0.3282130066666668    0.2053251400000000    0.5000000000000000 C
   0.3282130066666668    0.5386584733333333    0.5000000000000000 C
   0.3282130066666667    0.8719918066666666    0.5000000000000000 C
   0.6615463400000000    0.2053251400000000    0.5000000000000000 C
   0.6615463400000000    0.5386584733333333    0.5000000000000000 C
   0.6615463400000002    0.8719918066666666    0.5000000000000000 C
   0.9948796733333335    0.2053251400000000    0.5000000000000000 C
   0.9948796733333332    0.5386584733333333    0.5000000000000000 C
   0.9948796733333333    0.8719918066666666    0.5000000000000000 C
   0.0087045566666667    0.2176139266666667    0.5000000000000000 C
   0.0087045566666667    0.5509472599999999    0.5000000000000000 C
   0.0087045566666667    0.8842805933333332    0.5000000000000000 C
   0.3420378900000000    0.2176139266666667    0.5000000000000000 C
   0.3420378899999999    0.5509472599999999    0.5000000000000000 C
   0.3420378900000000    0.8842805933333332    0.5000000000000000 C
   0.6753712233333332    0.2176139266666667    0.5000000000000000 C
   0.6753712233333331    0.5509472599999999    0.5000000000000000 C
   0.6753712233333332    0.8842805933333332    0.5000000000000000 C
   0.1469534066666667    0.0071684600000000    0.5000000000000000 C
   0.1469534066666666    0.3405017933333334    0.5000000000000000 C
   0.1469534066666666    0.6738351266666667    0.5000000000000000 C
   0.4802867399999999    0.0071684600000000    0.5000000000000000 C
   0.4802867399999999    0.3405017933333334    0.5000000000000000 C
   0.4802867400000000    0.6738351266666667    0.5000000000000000 C
   0.8136200733333333    0.0071684600000000    0.5000000000000000 C
   0.8136200733333332    0.3405017933333334    0.5000000000000000 C
   0.8136200733333331    0.6738351266666667    0.5000000000000000 C
   0.1607782900000000    0.0194572466666667    0.5000000000000000 C
   0.1607782900000001    0.3527905800000000    0.5000000000000000 C
   0.1607782900000001    0.6861239133333333    0.5000000000000000 C
   0.4941116233333332    0.0194572466666667    0.5000000000000000 C
   0.4941116233333331    0.3527905800000000    0.5000000000000000 C
   0.4941116233333333    0.6861239133333333    0.5000000000000000 C
   0.8274449566666666    0.0194572466666667    0.5000000000000000 C
   0.8274449566666667    0.3527905800000000    0.5000000000000000 C
   0.8274449566666666    0.6861239133333333    0.5000000000000000 C
   0.1746031733333333    0.0317460333333333    0.5000000000000000 C
   0.1746031733333334    0.3650793666666666    0.5000000000000000 C
   0.1746031733333333    0.6984127000000002    0.5000000000000000 C
   0.5079365066666667    0.0317460333333333    0.5000000000000000 C
   0.5079365066666667    0.3650793666666666    0.5000000000000000 C
   0.5079365066666665    0.6984127000000002    0.5000000000000000 C
   0.8412698399999999    0.0317460333333333    0.5000000000000000 C
   0.8412698400000000    0.3650793666666666    0.5000000000000000 C
   0.8412698399999997    0.6984127000000002    0.5000000000000000 C
   0.1884280600000000    0.0440348166666667    0.5000000000000000 C
   0.1884280600000000    0.3773681500000000    0.5000000000000000 C
   0.1884280600000001    0.7107014833333333    0.5000000000000000 C
   0.5217613933333334    0.0440348166666667    0.5000000000000000 C
   0.5217613933333334    0.3773681500000000    0.5000000000000000 C
   0.5217613933333333    0.7107014833333333    0.5000000000000000 C
   0.8550947266666666    0.0440348166666667    0.5000000000000000 C
   0.8550947266666667    0.3773681500000000    0.5000000000000000 C
   0.8550947266666667    0.7107014833333333    0.5000000000000000 C
   0.2022529433333333    0.0563236033333333    0.5000000000000000 C
   0.2022529433333334    0.3896569366666667    0.5000000000000000 C
   0.2022529433333334    0.7229902700000000    0.5000000000000000 C
   0.5355862766666666    0.0563236033333333    0.5000000000000000 C
   0.5355862766666666    0.3896569366666667    0.5000000000000000 C
   0.5355862766666667    0.7229902700000000    0.5000000000000000 C
   0.8689196099999997    0.0563236033333333    0.5000000000000000 C
   0.8689196100000000    0.3896569366666667    0.5000000000000000 C
   0.8689196099999998    0.7229902700000000    0.5000000000000000 C
   0.2160778300000001    0.0686123900000000    0.5000000000000000 C
   0.2160778300000000    0.4019457233333333    0.5000000000000000 C
   0.2160778300000000    0.7352790566666667    0.5000000000000000 C
   0.5494111633333334    0.0686123900000000    0.5000000000000000 C
   0.5494111633333333    0.4019457233333333    0.5000000000000000 C
   0.5494111633333335    0.7352790566666667    0.5000000000000000 C
   0.8827444966666667    0.0686123900000000    0.5000000000000000 C
   0.8827444966666667    0.4019457233333333    0.5000000000000000 C
   0.8827444966666662    0.7352790566666667    0.5000000000000000 C
   0.2299027133333333    0.0809011766666667    0.5000000000000000 C
   0.2299027133333334    0.4142345100000000    0.5000000000000000 C
   0.2299027133333334    0.7475678433333334    0.5000000000000000 C
   0.5632360466666665    0.0809011766666667    0.5000000000000000 C
   0.5632360466666665    0.4142345100000000    0.5000000000000000 C
   0.5632360466666668    0.7475678433333334    0.5000000000000000 C
   0.8965693800000000    0.0809011766666667    0.5000000000000000 C
   0.8965693799999999    0.4142345100000000    0.5000000000000000 C
   0.8965693800000002    0.7475678433333334    0.5000000000000000 C
   0.2437276000000000    0.0931899633333333    0.5000000000000000 C
   0.2437276000000000    0.4265232966666667    0.5000000000000000 C
   0.2437276000000000    0.7598566299999999    0.5000000000000000 C
   0.5770609333333334    0.0931899633333333    0.5000000000000000 C
   0.5770609333333334    0.4265232966666667    0.5000000000000000 C
   0.5770609333333334    0.7598566299999999    0.5000000000000000 C
   0.9103942666666668    0.0931899633333333    0.5000000000000000 C
   0.9103942666666667    0.4265232966666667    0.5000000000000000 C
   0.9103942666666667    0.7598566299999999    0.5000000000000000 C
   0.2575524833333333    0.1054787500000000    0.5000000000000000 C
   0.2575524833333334    0.4388120833333334    0.5000000000000000 C
   0.2575524833333335    0.7721454166666668    0.5000000000000000 C
   0.5908858166666665    0.1054787500000000    0.5000000000000000 C
   0.5908858166666666    0.4388120833333334    0.5000000000000000 C
   0.5908858166666667    0.7721454166666668    0.5000000000000000 C
   0.9242191499999999    0.1054787500000000    0.5000000000000000 C
   0.9242191499999998    0.4388120833333334    0.5000000000000000 C
   0.9242191499999998    0.7721454166666668    0.5000000000000000 C
   0.2713773666666667    0.1177675366666667    0.5000000000000000 C
   0.2713773666666667    0.4511008700000000    0.5000000000000000 C
   0.2713773666666668    0.7844342033333334    0.5000000000000000 C
   0.6047106999999999    0.1177675366666667    0.5000000000000000 C
   0.6047106999999999    0.4511008700000000    0.5000000000000000 C
   0.6047107000000002    0.7844342033333334    0.5000000000000000 C
   0.9380440333333334    0.1177675366666667    0.5000000000000000 C
   0.9380440333333334    0.4511008700000000    0.5000000000000000 C
   0.9380440333333333    0.7844342033333334    0.5000000000000000 C
   0.2852022533333333    0.1300563233333333    0.5000000000000000 C
   0.2852022533333335    0.4633896566666667    0.5000000000000000 C
   0.2852022533333334    0.7967229900000001    0.5000000000000000 C
   0.6185355866666665    0.1300563233333333    0.5000000000000000 C
   0.6185355866666665    0.4633896566666667    0.5000000000000000 C
   0.6185355866666669    0.7967229900000001    0.5000000000000000 C
   0.9518689200000000    0.1300563233333333    0.5000000000000000 C
   0.9518689200000001    0.4633896566666667    0.5000000000000000 C
   0.9518689200000001    0.7967229900000001    0.5000000000000000 C
   0.2990271366666666    0.1423451100000000    0.5000000000000000 C
   0.2990271366666666    0.4756784433333333    0.5000000000000000 C
   0.2990271366666666    0.8090117766666666    0.5000000000000000 C
   0.6323604700000000    0.1423451100000000    0.5000000000000000 C
   0.6323604699999998    0.4756784433333333    0.5000000000000000 C
   0.6323604700000001    0.8090117766666666    0.5000000000000000 C
   0.9656938033333333    0.1423451100000000    0.5000000000000000 C
   0.9656938033333333    0.4756784433333333    0.5000000000000000 C
   0.9656938033333333    0.8090117766666666    0.5000000000000000 C
   0.3128520233333332    0.1546338966666667    0.5000000000000000 C
   0.3128520233333334    0.4879672300000000    0.5000000000000000 C
   0.3128520233333332    0.8213005633333332    0.5000000000000000 C
   0.6461853566666665    0.1546338966666667    0.5000000000000000 C
   0.6461853566666665    0.4879672300000000    0.5000000000000000 C
   0.6461853566666667    0.8213005633333332    0.5000000000000000 C
   0.9795186899999999    0.1546338966666667    0.5000000000000000 C
   0.9795186899999998    0.4879672300000000    0.5000000000000000 C
   0.9795186899999997    0.8213005633333332    0.5000000000000000 C
   0.3266769066666667    0.1669226833333333    0.5000000000000000 C
   0.3266769066666668    0.5002560166666666    0.5000000000000000 C
   0.3266769066666669    0.8335893500000000    0.5000000000000000 C
   0.6600102399999999    0.1669226833333333    0.5000000000000000 C
   0.6600102399999999    0.5002560166666666    0.5000000000000000 C
   0.6600102400000001    0.8335893500000000    0.5000000000000000 C
   0.9933435733333335    0.1669226833333333    0.5000000000000000 C
   0.9933435733333337    0.5002560166666666    0.5000000000000000 C
   0.9933435733333336    0.8335893500000000    0.5000000000000000 C
   0.0071684600000000    0.1792114700000000    0.5000000000000000 C
   0.0071684600000001    0.5125448033333333    0.5000000000000000 C
   0.0071684600000001    0.8458781366666667    0.5000000000000000 C
   0.3405017933333333    0.1792114700000000    0.5000000000000000 C
   0.3405017933333333    0.5125448033333333    0.5000000000000000 C
   0.3405017933333334    0.8458781366666667    0.5000000000000000 C
   0.6738351266666665    0.1792114700000000    0.5000000000000000 C
   0.6738351266666666    0.5125448033333333    0.5000000000000000 C
   0.6738351266666665    0.8458781366666667    0.5000000000000000 C
   0.1868919600000000    0.0056323600000000    0.5000000000000000 C
   0.1868919600000000    0.3389656933333334    0.5000000000000000 C
   0.1868919600000001    0.6722990266666666    0.5000000000000000 C
   0.5202252933333333    0.0056323600000000    0.5000000000000000 C
   0.5202252933333332    0.3389656933333334    0.5000000000000000 C
   0.5202252933333334    0.6722990266666666    0.5000000000000000 C
   0.8535586266666667    0.0056323600000000    0.5000000000000000 C
   0.8535586266666666    0.3389656933333334    0.5000000000000000 C
   0.8535586266666667    0.6722990266666666    0.5000000000000000 C
   0.2007168466666667    0.0179211466666667    0.5000000000000000 C
   0.2007168466666666    0.3512544800000000    0.5000000000000000 C
   0.2007168466666668    0.6845878133333334    0.5000000000000000 C
   0.5340501799999999    0.0179211466666667    0.5000000000000000 C
   0.5340501799999999    0.3512544800000000    0.5000000000000000 C
   0.5340501799999999    0.6845878133333334    0.5000000000000000 C
   0.8673835133333333    0.0179211466666667    0.5000000000000000 C
   0.8673835133333333    0.3512544800000000    0.5000000000000000 C
   0.8673835133333331    0.6845878133333334    0.5000000000000000 C
   0.2145417300000000    0.0302099333333333    0.5000000000000000 C
   0.2145417299999999    0.3635432666666667    0.5000000000000000 C
   0.2145417300000001    0.6968766000000000    0.5000000000000000 C
   0.5478750633333331    0.0302099333333333    0.5000000000000000 C
   0.5478750633333334    0.3635432666666667    0.5000000000000000 C
   0.5478750633333334    0.6968766000000000    0.5000000000000000 C
   0.8812083966666665    0.0302099333333333    0.5000000000000000 C
   0.8812083966666665    0.3635432666666667    0.5000000000000000 C
   0.8812083966666666    0.6968766000000000    0.5000000000000000 C
   0.2283666166666667    0.0424987200000000    0.5000000000000000 C
   0.2283666166666667    0.3758320533333334    0.5000000000000000 C
   0.2283666166666667    0.7091653866666667    0.5000000000000000 C
   0.5616999499999999    0.0424987200000000    0.5000000000000000 C
   0.5616999499999999    0.3758320533333334    0.5000000000000000 C
   0.5616999499999999    0.7091653866666667    0.5000000000000000 C
   0.8950332833333332    0.0424987200000000    0.5000000000000000 C
   0.8950332833333332    0.3758320533333334    0.5000000000000000 C
   0.8950332833333332    0.7091653866666667    0.5000000000000000 C
   0.2421914999999999    0.0547875066666667    0.5000000000000000 C
   0.2421914999999999    0.3881208400000000    0.5000000000000000 C
   0.2421914999999999    0.7214541733333334    0.5000000000000000 C
   0.5755248333333333    0.0547875066666667    0.5000000000000000 C
   0.5755248333333334    0.3881208400000000    0.5000000000000000 C
   0.5755248333333332    0.7214541733333334    0.5000000000000000 C
   0.9088581666666665    0.0547875066666667    0.5000000000000000 C
   0.9088581666666666    0.3881208400000000    0.5000000000000000 C
   0.9088581666666664    0.7214541733333334    0.5000000000000000 C
   0.2560163866666667    0.0670762933333333    0.5000000000000000 C
   0.2560163866666668    0.4004096266666667    0.5000000000000000 C
   0.2560163866666668    0.7337429599999999    0.5000000000000000 C
   0.5893497200000000    0.0670762933333333    0.5000000000000000 C
   0.5893497199999999    0.4004096266666667    0.5000000000000000 C
   0.5893497200000000    0.7337429599999999    0.5000000000000000 C
   0.9226830533333332    0.0670762933333333    0.5000000000000000 C
   0.9226830533333332    0.4004096266666667    0.5000000000000000 C
   0.9226830533333333    0.7337429599999999    0.5000000000000000 C
   0.2698412700000001    0.0793650800000000    0.5000000000000000 C
   0.2698412700000000    0.4126984133333333    0.5000000000000000 C
   0.2698412700000000    0.7460317466666666    0.5000000000000000 C
   0.6031746033333333    0.0793650800000000    0.5000000000000000 C
   0.6031746033333334    0.4126984133333333    0.5000000000000000 C
   0.6031746033333333    0.7460317466666666    0.5000000000000000 C
   0.9365079366666665    0.0793650800000000    0.5000000000000000 C
   0.9365079366666665    0.4126984133333333    0.5000000000000000 C
   0.9365079366666667    0.7460317466666666    0.5000000000000000 C
   0.2836661533333333    0.0916538666666667    0.5000000000000000 C
   0.2836661533333334    0.4249872000000001    0.5000000000000000 C
   0.2836661533333333    0.7583205333333335    0.5000000000000000 C
   0.6169994866666666    0.0916538666666667    0.5000000000000000 C
   0.6169994866666664    0.4249872000000001    0.5000000000000000 C
   0.6169994866666668    0.7583205333333335    0.5000000000000000 C
   0.9503328200000001    0.0916538666666667    0.5000000000000000 C
   0.9503328200000000    0.4249872000000001    0.5000000000000000 C
   0.9503328200000001    0.7583205333333335    0.5000000000000000 C
   0.2974910400000000    0.1039426533333333    0.5000000000000000 C
   0.2974910400000000    0.4372759866666666    0.5000000000000000 C
   0.2974910400000000    0.7706093200000000    0.5000000000000000 C
   0.6308243733333333    0.1039426533333333    0.5000000000000000 C
   0.6308243733333335    0.4372759866666666    0.5000000000000000 C
   0.6308243733333333    0.7706093200000000    0.5000000000000000 C
   0.9641577066666666    0.1039426533333333    0.5000000000000000 C
   0.9641577066666669    0.4372759866666666    0.5000000000000000 C
   0.9641577066666668    0.7706093200000000    0.5000000000000000 C
   0.3113159233333333    0.1162314400000000    0.5000000000000000 C
   0.3113159233333333    0.4495647733333333    0.5000000000000000 C
   0.3113159233333333    0.7828981066666668    0.5000000000000000 C
   0.6446492566666668    0.1162314400000000    0.5000000000000000 C
   0.6446492566666667    0.4495647733333333    0.5000000000000000 C
   0.6446492566666665    0.7828981066666668    0.5000000000000000 C
   0.9779825899999999    0.1162314400000000    0.5000000000000000 C
   0.9779825899999997    0.4495647733333333    0.5000000000000000 C
   0.9779825900000000    0.7828981066666668    0.5000000000000000 C
   0.3251408099999999    0.1285202266666667    0.5000000000000000 C
   0.3251408099999999    0.4618535600000000    0.5000000000000000 C
   0.3251408100000000    0.7951868933333334    0.5000000000000000 C
   0.6584741433333333    0.1285202266666667    0.5000000000000000 C
   0.6584741433333333    0.4618535600000000    0.5000000000000000 C
   0.6584741433333334    0.7951868933333334    0.5000000000000000 C
   0.9918074766666665    0.1285202266666667    0.5000000000000000 C
   0.9918074766666666    0.4618535600000000    0.5000000000000000 C
   0.9918074766666667    0.7951868933333334    0.5000000000000000 C
   0.0056323600000000    0.1408090133333333    0.5000000000000000 C
   0.0056323600000000    0.4741423466666667    0.5000000000000000 C
   0.0056323600000000    0.8074756799999999    0.5000000000000000 C
   0.3389656933333333    0.1408090133333333    0.5000000000000000 C
   0.3389656933333333    0.4741423466666667    0.5000000000000000 C
   0.3389656933333334    0.8074756799999999    0.5000000000000000 C
   0.6722990266666667    0.1408090133333333    0.5000000000000000 C
   0.6722990266666665    0.4741423466666667    0.5000000000000000 C
   0.6722990266666664    0.8074756799999999    0.5000000000000000 C
   0.2268305166666666    0.0040962633333333    0.5000000000000000 C
   0.2268305166666667    0.3374295966666667    0.5000000000000000 C
   0.2268305166666668    0.6707629300000000    0.5000000000000000 C
   0.5601638500000000    0.0040962633333333    0.5000000000000000 C
   0.5601638499999999    0.3374295966666667    0.5000000000000000 C
   0.5601638499999999    0.6707629300000000    0.5000000000000000 C
   0.8934971833333333    0.0040962633333333    0.5000000000000000 C
   0.8934971833333333    0.3374295966666667    0.5000000000000000 C
   0.8934971833333332    0.6707629300000000    0.5000000000000000 C
   0.2406554033333334    0.0163850500000000    0.5000000000000000 C
   0.2406554033333334    0.3497183833333333    0.5000000000000000 C
   0.2406554033333333    0.6830517166666666    0.5000000000000000 C
   0.5739887366666667    0.0163850500000000    0.5000000000000000 C
   0.5739887366666666    0.3497183833333333    0.5000000000000000 C
   0.5739887366666668    0.6830517166666666    0.5000000000000000 C
   0.9073220700000001    0.0163850500000000    0.5000000000000000 C
   0.9073220700000000    0.3497183833333333    0.5000000000000000 C
   0.9073220700000001    0.6830517166666666    0.5000000000000000 C
   0.2544802866666667    0.0286738366666667    0.5000000000000000 C
   0.2544802866666668    0.3620071700000000    0.5000000000000000 C
   0.2544802866666666    0.6953405033333335    0.5000000000000000 C
   0.5878136200000000    0.0286738366666667    0.5000000000000000 C
   0.5878136200000001    0.3620071700000000    0.5000000000000000 C
   0.5878136200000000    0.6953405033333335    0.5000000000000000 C
   0.9211469533333333    0.0286738366666667    0.5000000000000000 C
   0.9211469533333332    0.3620071700000000    0.5000000000000000 C
   0.9211469533333332    0.6953405033333335    0.5000000000000000 C
   0.2683051700000000    0.0409626200000000    0.5000000000000000 C
   0.2683051700000000    0.3742959533333333    0.5000000000000000 C
   0.2683051699999999    0.7076292866666668    0.5000000000000000 C
   0.6016385033333332    0.0409626200000000    0.5000000000000000 C
   0.6016385033333331    0.3742959533333333    0.5000000000000000 C
   0.6016385033333335    0.7076292866666668    0.5000000000000000 C
   0.9349718366666665    0.0409626200000000    0.5000000000000000 C
   0.9349718366666665    0.3742959533333333    0.5000000000000000 C
   0.9349718366666666    0.7076292866666668    0.5000000000000000 C
   0.2821300566666667    0.0532514066666667    0.5000000000000000 C
   0.2821300566666667    0.3865847400000000    0.5000000000000000 C
   0.2821300566666670    0.7199180733333334    0.5000000000000000 C
   0.6154633899999999    0.0532514066666667    0.5000000000000000 C
   0.6154633899999999    0.3865847400000000    0.5000000000000000 C
   0.6154633900000002    0.7199180733333334    0.5000000000000000 C
   0.9487967233333333    0.0532514066666667    0.5000000000000000 C
   0.9487967233333332    0.3865847400000000    0.5000000000000000 C
   0.9487967233333335    0.7199180733333334    0.5000000000000000 C
   0.2959549400000000    0.0655401933333333    0.5000000000000000 C
   0.2959549400000001    0.3988735266666666    0.5000000000000000 C
   0.2959549400000001    0.7322068600000000    0.5000000000000000 C
   0.6292882733333333    0.0655401933333333    0.5000000000000000 C
   0.6292882733333334    0.3988735266666666    0.5000000000000000 C
   0.6292882733333334    0.7322068600000000    0.5000000000000000 C
   0.9626216066666667    0.0655401933333333    0.5000000000000000 C
   0.9626216066666665    0.3988735266666666    0.5000000000000000 C
   0.9626216066666667    0.7322068600000000    0.5000000000000000 C
   0.3097798266666666    0.0778289800000000    0.5000000000000000 C
   0.3097798266666667    0.4111623133333333    0.5000000000000000 C
   0.3097798266666668    0.7444956466666667    0.5000000000000000 C
   0.6431131599999999    0.0778289800000000    0.5000000000000000 C
   0.6431131600000000    0.4111623133333333    0.5000000000000000 C
   0.6431131600000000    0.7444956466666667    0.5000000000000000 C
   0.9764464933333332    0.0778289800000000    0.5000000000000000 C
   0.9764464933333331    0.4111623133333333    0.5000000000000000 C
   0.9764464933333332    0.7444956466666667    0.5000000000000000 C
   0.3236047100000001    0.0901177666666667    0.5000000000000000 C
   0.3236047100000001    0.4234511000000000    0.5000000000000000 C
   0.3236047100000002    0.7567844333333332    0.5000000000000000 C
   0.6569380433333335    0.0901177666666667    0.5000000000000000 C
   0.6569380433333334    0.4234511000000000    0.5000000000000000 C
   0.6569380433333335    0.7567844333333332    0.5000000000000000 C
   0.9902713766666668    0.0901177666666667    0.5000000000000000 C
   0.9902713766666665    0.4234511000000000    0.5000000000000000 C
   0.9902713766666665    0.7567844333333332    0.5000000000000000 C
   0.0040962633333333    0.1024065533333333    0.5000000000000000 C
   0.0040962633333334    0.4357398866666666    0.5000000000000000 C
   0.0040962633333334    0.7690732200000000    0.5000000000000000 C
   0.3374295966666666    0.1024065533333333    0.5000000000000000 C
   0.3374295966666667    0.4357398866666666    0.5000000000000000 C
   0.3374295966666669    0.7690732200000000    0.5000000000000000 C
   0.6707629299999999    0.1024065533333333    0.5000000000000000 C
   0.6707629299999999    0.4357398866666666    0.5000000000000000 C
   0.6707629300000001    0.7690732200000000    0.5000000000000000 C
   0.2667690733333333    0.0025601633333333    0.5000000000000000 C
   0.2667690733333333    0.3358934966666667    0.5000000000000000 C
   0.2667690733333332    0.6692268300000001    0.5000000000000000 C
   0.6001024066666667    0.0025601633333333    0.5000000000000000 C
   0.6001024066666667    0.3358934966666667    0.5000000000000000 C
   0.6001024066666667    0.6692268300000001    0.5000000000000000 C
   0.9334357399999998    0.0025601633333333    0.5000000000000000 C
   0.9334357399999998    0.3358934966666667    0.5000000000000000 C
   0.9334357400000000    0.6692268300000001    0.5000000000000000 C
   0.2805939566666667    0.0148489500000000    0.5000000000000000 C
   0.2805939566666667    0.3481822833333333    0.5000000000000000 C
   0.2805939566666668    0.6815156166666667    0.5000000000000000 C
   0.6139272900000000    0.0148489500000000    0.5000000000000000 C
   0.6139272900000000    0.3481822833333333    0.5000000000000000 C
   0.6139272899999999    0.6815156166666667    0.5000000000000000 C
   0.9472606233333333    0.0148489500000000    0.5000000000000000 C
   0.9472606233333334    0.3481822833333333    0.5000000000000000 C
   0.9472606233333332    0.6815156166666667    0.5000000000000000 C
   0.2944188433333334    0.0271377366666667    0.5000000000000000 C
   0.2944188433333333    0.3604710700000000    0.5000000000000000 C
   0.2944188433333334    0.6938044033333334    0.5000000000000000 C
   0.6277521766666666    0.0271377366666667    0.5000000000000000 C
   0.6277521766666667    0.3604710700000000    0.5000000000000000 C
   0.6277521766666666    0.6938044033333334    0.5000000000000000 C
   0.9610855099999998    0.0271377366666667    0.5000000000000000 C
   0.9610855100000000    0.3604710700000000    0.5000000000000000 C
   0.9610855100000000    0.6938044033333334    0.5000000000000000 C
   0.3082437266666668    0.0394265233333333    0.5000000000000000 C
   0.3082437266666667    0.3727598566666667    0.5000000000000000 C
   0.3082437266666667    0.7060931900000000    0.5000000000000000 C
   0.6415770600000000    0.0394265233333333    0.5000000000000000 C
   0.6415770599999999    0.3727598566666667    0.5000000000000000 C
   0.6415770600000001    0.7060931900000000    0.5000000000000000 C
   0.9749103933333333    0.0394265233333333    0.5000000000000000 C
   0.9749103933333333    0.3727598566666667    0.5000000000000000 C
   0.9749103933333331    0.7060931900000000    0.5000000000000000 C
   0.3220686133333333    0.0517153100000000    0.5000000000000000 C
   0.3220686133333334    0.3850486433333333    0.5000000000000000 C
   0.3220686133333333    0.7183819766666667    0.5000000000000000 C
   0.6554019466666665    0.0517153100000000    0.5000000000000000 C
   0.6554019466666665    0.3850486433333333    0.5000000000000000 C
   0.6554019466666666    0.7183819766666667    0.5000000000000000 C
   0.9887352799999998    0.0517153100000000    0.5000000000000000 C
   0.9887352799999999    0.3850486433333333    0.5000000000000000 C
   0.9887352799999997    0.7183819766666667    0.5000000000000000 C
   0.0025601633333333    0.0640040966666667    0.5000000000000000 C
   0.0025601633333333    0.3973374300000000    0.5000000000000000 C
   0.0025601633333334    0.7306707633333334    0.5000000000000000 C
   0.3358934966666666    0.0640040966666667    0.5000000000000000 C
   0.3358934966666666    0.3973374300000000    0.5000000000000000 C
   0.3358934966666666    0.7306707633333334    0.5000000000000000 C
   0.6692268299999999    0.0640040966666667    0.5000000000000000 C
   0.6692268299999999    0.3973374300000000    0.5000000000000000 C
   0.6692268299999999    0.7306707633333334    0.5000000000000000 C
   0.3067076300000000    0.0010240666666667    0.5000000000000000 C
   0.3067076300000001    0.3343574000000000    0.5000000000000000 C
   0.3067076300000000    0.6676907333333333    0.5000000000000000 C
   0.6400409633333330    0.0010240666666667    0.5000000000000000 C
   0.6400409633333332    0.3343574000000000    0.5000000000000000 C
   0.6400409633333335    0.6676907333333333    0.5000000000000000 C
   0.9733742966666666    0.0010240666666667    0.5000000000000000 C
   0.9733742966666667    0.3343574000000000    0.5000000000000000 C
   0.9733742966666664    0.6676907333333333    0.5000000000000000 C
   0.3205325133333334    0.0133128533333333    0.5000000000000000 C
   0.3205325133333333    0.3466461866666667    0.5000000000000000 C
   0.3205325133333333    0.6799795200000001    0.5000000000000000 C
   0.6538658466666665    0.0133128533333333    0.5000000000000000 C
   0.6538658466666667    0.3466461866666667    0.5000000000000000 C
   0.6538658466666667    0.6799795200000001    0.5000000000000000 C
   0.9871991799999998    0.0133128533333333    0.5000000000000000 C
   0.9871991800000001    0.3466461866666667    0.5000000000000000 C
   0.9871991799999996    0.6799795200000001    0.5000000000000000 C
   0.0010240666666667    0.0256016400000000    0.5000000000000000 C
   0.0010240666666667    0.3589349733333334    0.5000000000000000 C
   0.0010240666666667    0.6922683066666667    0.5000000000000000 C
   0.3343574000000000    0.0256016400000000    0.5000000000000000 C
   0.3343573999999999    0.3589349733333334    0.5000000000000000 C
   0.3343574000000001    0.6922683066666667    0.5000000000000000 C
   0.6676907333333331    0.0256016400000000    0.5000000000000000 C
   0.6676907333333333    0.3589349733333334    0.5000000000000000 C
   0.6676907333333331    0.6922683066666667    0.5000000000000000 C
   0.0389144900000001    0.3061955966666667    0.5000000000000000 C
   0.0389144900000001    0.6395289300000000    0.5000000000000000 C
   0.0389144900000000    0.9728622633333335    0.5000000000000000 C
   0.3722478233333334    0.3061955966666667    0.5000000000000000 C
   0.3722478233333333    0.6395289300000000    0.5000000000000000 C
   0.3722478233333333    0.9728622633333335    0.5000000000000000 C
   0.7055811566666667    0.3061955966666667    0.5000000000000000 C
   0.7055811566666665    0.6395289300000000    0.5000000000000000 C
   0.7055811566666665    0.9728622633333335    0.5000000000000000 C
   0.0527393766666667    0.3184843833333333    0.5000000000000000 C
   0.0527393766666667    0.6518177166666667    0.5000000000000000 C
   0.0527393766666668    0.9851510499999999    0.5000000000000000 C
   0.3860727100000001    0.3184843833333333    0.5000000000000000 C
   0.3860727100000000    0.6518177166666667    0.5000000000000000 C
   0.3860727100000002    0.9851510499999999    0.5000000000000000 C
   0.7194060433333332    0.3184843833333333    0.5000000000000000 C
   0.7194060433333334    0.6518177166666667    0.5000000000000000 C
   0.7194060433333334    0.9851510499999999    0.5000000000000000 C
   0.0665642600000000    0.3307731700000000    0.5000000000000000 C
   0.0665642600000000    0.6641065033333333    0.5000000000000000 C
   0.0665642600000001    0.9974398366666668    0.5000000000000000 C
   0.3998975933333334    0.3307731700000000    0.5000000000000000 C
   0.3998975933333332    0.6641065033333333    0.5000000000000000 C
   0.3998975933333334    0.9974398366666668    0.5000000000000000 C
   0.7332309266666667    0.3307731700000000    0.5000000000000000 C
   0.7332309266666667    0.6641065033333333    0.5000000000000000 C
   0.7332309266666664    0.9974398366666668    0.5000000000000000 C
   0.0373783933333334    0.2677931400000000    0.5000000000000000 C
   0.0373783933333333    0.6011264733333332    0.5000000000000000 C
   0.0373783933333334    0.9344598066666668    0.5000000000000000 C
   0.3707117266666666    0.2677931400000000    0.5000000000000000 C
   0.3707117266666666    0.6011264733333332    0.5000000000000000 C
   0.3707117266666667    0.9344598066666668    0.5000000000000000 C
   0.7040450599999999    0.2677931400000000    0.5000000000000000 C
   0.7040450600000001    0.6011264733333332    0.5000000000000000 C
   0.7040450599999999    0.9344598066666668    0.5000000000000000 C
   0.0512032766666667    0.2800819266666667    0.5000000000000000 C
   0.0512032766666667    0.6134152600000000    0.5000000000000000 C
   0.0512032766666667    0.9467485933333334    0.5000000000000000 C
   0.3845366100000000    0.2800819266666667    0.5000000000000000 C
   0.3845366099999999    0.6134152600000000    0.5000000000000000 C
   0.3845366100000001    0.9467485933333334    0.5000000000000000 C
   0.7178699433333331    0.2800819266666667    0.5000000000000000 C
   0.7178699433333333    0.6134152600000000    0.5000000000000000 C
   0.7178699433333334    0.9467485933333334    0.5000000000000000 C
   0.0650281633333333    0.2923707133333334    0.5000000000000000 C
   0.0650281633333334    0.6257040466666667    0.5000000000000000 C
   0.0650281633333335    0.9590373799999999    0.5000000000000000 C
   0.3983614966666666    0.2923707133333334    0.5000000000000000 C
   0.3983614966666666    0.6257040466666667    0.5000000000000000 C
   0.3983614966666669    0.9590373799999999    0.5000000000000000 C
   0.7316948299999998    0.2923707133333334    0.5000000000000000 C
   0.7316948299999999    0.6257040466666667    0.5000000000000000 C
   0.7316948299999998    0.9590373799999999    0.5000000000000000 C
   0.0788530466666667    0.3046594966666666    0.5000000000000000 C
   0.0788530466666667    0.6379928300000000    0.5000000000000000 C
   0.0788530466666666    0.9713261633333333    0.5000000000000000 C
   0.4121863800000000    0.3046594966666666    0.5000000000000000 C
   0.4121863800000001    0.6379928300000000    0.5000000000000000 C
   0.4121863800000000    0.9713261633333333    0.5000000000000000 C
   0.7455197133333332    0.3046594966666666    0.5000000000000000 C
   0.7455197133333333    0.6379928300000000    0.5000000000000000 C
   0.7455197133333331    0.9713261633333333    0.5000000000000000 C
   0.0926779300000000    0.3169482833333333    0.5000000000000000 C
   0.0926779300000000    0.6502816166666666    0.5000000000000000 C
   0.0926779300000001    0.9836149500000000    0.5000000000000000 C
   0.4260112633333334    0.3169482833333333    0.5000000000000000 C
   0.4260112633333333    0.6502816166666666    0.5000000000000000 C
   0.4260112633333335    0.9836149500000000    0.5000000000000000 C
   0.7593445966666665    0.3169482833333333    0.5000000000000000 C
   0.7593445966666664    0.6502816166666666    0.5000000000000000 C
   0.7593445966666664    0.9836149500000000    0.5000000000000000 C
   0.1065028166666667    0.3292370700000000    0.5000000000000000 C
   0.1065028166666667    0.6625704033333333    0.5000000000000000 C
   0.1065028166666667    0.9959037366666665    0.5000000000000000 C
   0.4398361500000000    0.3292370700000000    0.5000000000000000 C
   0.4398361500000000    0.6625704033333333    0.5000000000000000 C
   0.4398361500000002    0.9959037366666665    0.5000000000000000 C
   0.7731694833333332    0.3292370700000000    0.5000000000000000 C
   0.7731694833333332    0.6625704033333333    0.5000000000000000 C
   0.7731694833333331    0.9959037366666665    0.5000000000000000 C
   0.0358422933333333    0.2293906800000000    0.5000000000000000 C
   0.0358422933333334    0.5627240133333333    0.5000000000000000 C
   0.0358422933333333    0.8960573466666667    0.5000000000000000 C
   0.3691756266666666    0.2293906800000000    0.5000000000000000 C
   0.3691756266666667    0.5627240133333333    0.5000000000000000 C
   0.3691756266666666    0.8960573466666667    0.5000000000000000 C
   0.7025089600000000    0.2293906800000000    0.5000000000000000 C
   0.7025089600000000    0.5627240133333333    0.5000000000000000 C
   0.7025089600000000    0.8960573466666667    0.5000000000000000 C
   0.0496671800000000    0.2416794666666666    0.5000000000000000 C
   0.0496671800000000    0.5750128000000000    0.5000000000000000 C
   0.0496671800000000    0.9083461333333332    0.5000000000000000 C
   0.3830005133333333    0.2416794666666666    0.5000000000000000 C
   0.3830005133333332    0.5750128000000000    0.5000000000000000 C
   0.3830005133333333    0.9083461333333332    0.5000000000000000 C
   0.7163338466666667    0.2416794666666666    0.5000000000000000 C
   0.7163338466666667    0.5750128000000000    0.5000000000000000 C
   0.7163338466666666    0.9083461333333332    0.5000000000000000 C
   0.0634920633333333    0.2539682533333333    0.5000000000000000 C
   0.0634920633333333    0.5873015866666667    0.5000000000000000 C
   0.0634920633333334    0.9206349200000000    0.5000000000000000 C
   0.3968253966666668    0.2539682533333333    0.5000000000000000 C
   0.3968253966666665    0.5873015866666667    0.5000000000000000 C
   0.3968253966666668    0.9206349200000000    0.5000000000000000 C
   0.7301587299999999    0.2539682533333333    0.5000000000000000 C
   0.7301587299999998    0.5873015866666667    0.5000000000000000 C
   0.7301587299999999    0.9206349200000000    0.5000000000000000 C
   0.0773169466666667    0.2662570399999999    0.5000000000000000 C
   0.0773169466666668    0.5995903733333333    0.5000000000000000 C
   0.0773169466666667    0.9329237066666666    0.5000000000000000 C
   0.4106502799999999    0.2662570399999999    0.5000000000000000 C
   0.4106502799999998    0.5995903733333333    0.5000000000000000 C
   0.4106502800000002    0.9329237066666666    0.5000000000000000 C
   0.7439836133333334    0.2662570399999999    0.5000000000000000 C
   0.7439836133333335    0.5995903733333333    0.5000000000000000 C
   0.7439836133333335    0.9329237066666666    0.5000000000000000 C
   0.0911418333333333    0.2785458266666667    0.5000000000000000 C
   0.0911418333333334    0.6118791600000000    0.5000000000000000 C
   0.0911418333333333    0.9452124933333333    0.5000000000000000 C
   0.4244751666666668    0.2785458266666667    0.5000000000000000 C
   0.4244751666666665    0.6118791600000000    0.5000000000000000 C
   0.4244751666666667    0.9452124933333333    0.5000000000000000 C
   0.7578085000000000    0.2785458266666667    0.5000000000000000 C
   0.7578085000000001    0.6118791600000000    0.5000000000000000 C
   0.7578085000000000    0.9452124933333333    0.5000000000000000 C
   0.1049667166666667    0.2908346133333333    0.5000000000000000 C
   0.1049667166666668    0.6241679466666666    0.5000000000000000 C
   0.1049667166666668    0.9575012800000000    0.5000000000000000 C
   0.4383000500000000    0.2908346133333333    0.5000000000000000 C
   0.4383000500000001    0.6241679466666666    0.5000000000000000 C
   0.4383000499999999    0.9575012800000000    0.5000000000000000 C
   0.7716333833333333    0.2908346133333333    0.5000000000000000 C
   0.7716333833333333    0.6241679466666666    0.5000000000000000 C
   0.7716333833333330    0.9575012800000000    0.5000000000000000 C
   0.1187916033333333    0.3031234000000000    0.5000000000000000 C
   0.1187916033333333    0.6364567333333333    0.5000000000000000 C
   0.1187916033333334    0.9697900666666668    0.5000000000000000 C
   0.4521249366666668    0.3031234000000000    0.5000000000000000 C
   0.4521249366666666    0.6364567333333333    0.5000000000000000 C
   0.4521249366666666    0.9697900666666668    0.5000000000000000 C
   0.7854582700000000    0.3031234000000000    0.5000000000000000 C
   0.7854582700000000    0.6364567333333333    0.5000000000000000 C
   0.7854582700000000    0.9697900666666668    0.5000000000000000 C
   0.1326164866666667    0.3154121866666666    0.5000000000000000 C
   0.1326164866666667    0.6487455200000000    0.5000000000000000 C
   0.1326164866666668    0.9820788533333332    0.5000000000000000 C
   0.4659498199999999    0.3154121866666666    0.5000000000000000 C
   0.4659498199999999    0.6487455200000000    0.5000000000000000 C
   0.4659498200000001    0.9820788533333332    0.5000000000000000 C
   0.7992831533333333    0.3154121866666666    0.5000000000000000 C
   0.7992831533333334    0.6487455200000000    0.5000000000000000 C
   0.7992831533333334    0.9820788533333332    0.5000000000000000 C
   0.1464413733333334    0.3277009733333333    0.5000000000000000 C
   0.1464413733333334    0.6610343066666666    0.5000000000000000 C
   0.1464413733333334    0.9943676400000001    0.5000000000000000 C
   0.4797747066666666    0.3277009733333333    0.5000000000000000 C
   0.4797747066666666    0.6610343066666666    0.5000000000000000 C
   0.4797747066666667    0.9943676400000001    0.5000000000000000 C
   0.8131080400000000    0.3277009733333333    0.5000000000000000 C
   0.8131080400000001    0.6610343066666666    0.5000000000000000 C
   0.8131080399999999    0.9943676400000001    0.5000000000000000 C
   0.0343061966666667    0.1909882233333333    0.5000000000000000 C
   0.0343061966666667    0.5243215566666667    0.5000000000000000 C
   0.0343061966666667    0.8576548900000001    0.5000000000000000 C
   0.3676395299999999    0.1909882233333333    0.5000000000000000 C
   0.3676395299999999    0.5243215566666667    0.5000000000000000 C
   0.3676395300000000    0.8576548900000001    0.5000000000000000 C
   0.7009728633333333    0.1909882233333333    0.5000000000000000 C
   0.7009728633333332    0.5243215566666667    0.5000000000000000 C
   0.7009728633333330    0.8576548900000001    0.5000000000000000 C
   0.0481310800000000    0.2032770100000000    0.5000000000000000 C
   0.0481310800000000    0.5366103433333334    0.5000000000000000 C
   0.0481310800000001    0.8699436766666667    0.5000000000000000 C
   0.3814644133333333    0.2032770100000000    0.5000000000000000 C
   0.3814644133333333    0.5366103433333334    0.5000000000000000 C
   0.3814644133333335    0.8699436766666667    0.5000000000000000 C
   0.7147977466666665    0.2032770100000000    0.5000000000000000 C
   0.7147977466666665    0.5366103433333334    0.5000000000000000 C
   0.7147977466666666    0.8699436766666667    0.5000000000000000 C
   0.0619559666666667    0.2155657966666667    0.5000000000000000 C
   0.0619559666666668    0.5488991300000000    0.5000000000000000 C
   0.0619559666666667    0.8822324633333334    0.5000000000000000 C
   0.3952893000000001    0.2155657966666667    0.5000000000000000 C
   0.3952893000000001    0.5488991300000000    0.5000000000000000 C
   0.3952893000000001    0.8822324633333334    0.5000000000000000 C
   0.7286226333333333    0.2155657966666667    0.5000000000000000 C
   0.7286226333333333    0.5488991300000000    0.5000000000000000 C
   0.7286226333333333    0.8822324633333334    0.5000000000000000 C
   0.0757808500000000    0.2278545833333334    0.5000000000000000 C
   0.0757808500000000    0.5611879166666667    0.5000000000000000 C
   0.0757808500000001    0.8945212500000000    0.5000000000000000 C
   0.4091141833333333    0.2278545833333334    0.5000000000000000 C
   0.4091141833333333    0.5611879166666667    0.5000000000000000 C
   0.4091141833333333    0.8945212500000000    0.5000000000000000 C
   0.7424475166666665    0.2278545833333334    0.5000000000000000 C
   0.7424475166666663    0.5611879166666667    0.5000000000000000 C
   0.7424475166666665    0.8945212500000000    0.5000000000000000 C
   0.0896057333333333    0.2401433700000000    0.5000000000000000 C
   0.0896057333333334    0.5734767033333333    0.5000000000000000 C
   0.0896057333333335    0.9068100366666667    0.5000000000000000 C
   0.4229390666666667    0.2401433700000000    0.5000000000000000 C
   0.4229390666666666    0.5734767033333333    0.5000000000000000 C
   0.4229390666666667    0.9068100366666667    0.5000000000000000 C
   0.7562724000000000    0.2401433700000000    0.5000000000000000 C
   0.7562724000000001    0.5734767033333333    0.5000000000000000 C
   0.7562723999999998    0.9068100366666667    0.5000000000000000 C
   0.1034306200000000    0.2524321566666666    0.5000000000000000 C
   0.1034306200000000    0.5857654900000000    0.5000000000000000 C
   0.1034306200000002    0.9190988233333333    0.5000000000000000 C
   0.4367639533333333    0.2524321566666666    0.5000000000000000 C
   0.4367639533333333    0.5857654900000000    0.5000000000000000 C
   0.4367639533333334    0.9190988233333333    0.5000000000000000 C
   0.7700972866666665    0.2524321566666666    0.5000000000000000 C
   0.7700972866666667    0.5857654900000000    0.5000000000000000 C
   0.7700972866666665    0.9190988233333333    0.5000000000000000 C
   0.1172555033333333    0.2647209433333333    0.5000000000000000 C
   0.1172555033333334    0.5980542766666666    0.5000000000000000 C
   0.1172555033333333    0.9313876100000001    0.5000000000000000 C
   0.4505888366666666    0.2647209433333333    0.5000000000000000 C
   0.4505888366666666    0.5980542766666666    0.5000000000000000 C
   0.4505888366666668    0.9313876100000001    0.5000000000000000 C
   0.7839221699999999    0.2647209433333333    0.5000000000000000 C
   0.7839221700000000    0.5980542766666666    0.5000000000000000 C
   0.7839221700000000    0.9313876100000001    0.5000000000000000 C
   0.1310803900000000    0.2770097300000000    0.5000000000000000 C
   0.1310803900000000    0.6103430633333333    0.5000000000000000 C
   0.1310803900000001    0.9436763966666666    0.5000000000000000 C
   0.4644137233333333    0.2770097300000000    0.5000000000000000 C
   0.4644137233333333    0.6103430633333333    0.5000000000000000 C
   0.4644137233333335    0.9436763966666666    0.5000000000000000 C
   0.7977470566666665    0.2770097300000000    0.5000000000000000 C
   0.7977470566666666    0.6103430633333333    0.5000000000000000 C
   0.7977470566666665    0.9436763966666666    0.5000000000000000 C
   0.1449052733333334    0.2892985166666666    0.5000000000000000 C
   0.1449052733333333    0.6226318500000000    0.5000000000000000 C
   0.1449052733333333    0.9559651833333332    0.5000000000000000 C
   0.4782386066666666    0.2892985166666666    0.5000000000000000 C
   0.4782386066666667    0.6226318500000000    0.5000000000000000 C
   0.4782386066666668    0.9559651833333332    0.5000000000000000 C
   0.8115719400000000    0.2892985166666666    0.5000000000000000 C
   0.8115719399999998    0.6226318500000000    0.5000000000000000 C
   0.8115719400000001    0.9559651833333332    0.5000000000000000 C
   0.1587301600000001    0.3015873000000000    0.5000000000000000 C
   0.1587301600000001    0.6349206333333334    0.5000000000000000 C
   0.1587301600000000    0.9682539666666666    0.5000000000000000 C
   0.4920634933333333    0.3015873000000000    0.5000000000000000 C
   0.4920634933333333    0.6349206333333334    0.5000000000000000 C
   0.4920634933333336    0.9682539666666666    0.5000000000000000 C
   0.8253968266666666    0.3015873000000000    0.5000000000000000 C
   0.8253968266666667    0.6349206333333334    0.5000000000000000 C
   0.8253968266666666    0.9682539666666666    0.5000000000000000 C
   0.1725550433333333    0.3138760866666667    0.5000000000000000 C
   0.1725550433333334    0.6472094199999999    0.5000000000000000 C
   0.1725550433333332    0.9805427533333334    0.5000000000000000 C
   0.5058883766666665    0.3138760866666667    0.5000000000000000 C
   0.5058883766666666    0.6472094199999999    0.5000000000000000 C
   0.5058883766666665    0.9805427533333334    0.5000000000000000 C
   0.8392217099999999    0.3138760866666667    0.5000000000000000 C
   0.8392217099999999    0.6472094199999999    0.5000000000000000 C
   0.8392217099999998    0.9805427533333334    0.5000000000000000 C
   0.1863799266666667    0.3261648733333333    0.5000000000000000 C
   0.1863799266666666    0.6594982066666667    0.5000000000000000 C
   0.1863799266666668    0.9928315400000000    0.5000000000000000 C
   0.5197132600000002    0.3261648733333333    0.5000000000000000 C
   0.5197132600000000    0.6594982066666667    0.5000000000000000 C
   0.5197132600000001    0.9928315400000000    0.5000000000000000 C
   0.8530465933333334    0.3261648733333333    0.5000000000000000 C
   0.8530465933333332    0.6594982066666667    0.5000000000000000 C
   0.8530465933333331    0.9928315400000000    0.5000000000000000 C
   0.0327700966666667    0.1525857666666667    0.5000000000000000 C
   0.0327700966666667    0.4859191000000000    0.5000000000000000 C
   0.0327700966666668    0.8192524333333334    0.5000000000000000 C
   0.3661034299999999    0.1525857666666667    0.5000000000000000 C
   0.3661034300000000    0.4859191000000000    0.5000000000000000 C
   0.3661034300000001    0.8192524333333334    0.5000000000000000 C
   0.6994367633333333    0.1525857666666667    0.5000000000000000 C
   0.6994367633333332    0.4859191000000000    0.5000000000000000 C
   0.6994367633333334    0.8192524333333334    0.5000000000000000 C
   0.0465949833333333    0.1648745533333333    0.5000000000000000 C
   0.0465949833333333    0.4982078866666667    0.5000000000000000 C
   0.0465949833333334    0.8315412200000000    0.5000000000000000 C
   0.3799283166666667    0.1648745533333333    0.5000000000000000 C
   0.3799283166666667    0.4982078866666667    0.5000000000000000 C
   0.3799283166666668    0.8315412200000000    0.5000000000000000 C
   0.7132616499999999    0.1648745533333333    0.5000000000000000 C
   0.7132616500000000    0.4982078866666667    0.5000000000000000 C
   0.7132616499999997    0.8315412200000000    0.5000000000000000 C
   0.0604198666666667    0.1771633400000000    0.5000000000000000 C
   0.0604198666666667    0.5104966733333334    0.5000000000000000 C
   0.0604198666666667    0.8438300066666667    0.5000000000000000 C
   0.3937531999999999    0.1771633400000000    0.5000000000000000 C
   0.3937531999999999    0.5104966733333334    0.5000000000000000 C
   0.3937531999999999    0.8438300066666667    0.5000000000000000 C
   0.7270865333333332    0.1771633400000000    0.5000000000000000 C
   0.7270865333333331    0.5104966733333334    0.5000000000000000 C
   0.7270865333333333    0.8438300066666667    0.5000000000000000 C
   0.0742447500000000    0.1894521233333333    0.5000000000000000 C
   0.0742447500000000    0.5227854566666666    0.5000000000000000 C
   0.0742447500000000    0.8561187900000001    0.5000000000000000 C
   0.4075780833333333    0.1894521233333333    0.5000000000000000 C
   0.4075780833333333    0.5227854566666666    0.5000000000000000 C
   0.4075780833333333    0.8561187900000001    0.5000000000000000 C
   0.7409114166666666    0.1894521233333333    0.5000000000000000 C
   0.7409114166666667    0.5227854566666666    0.5000000000000000 C
   0.7409114166666666    0.8561187900000001    0.5000000000000000 C
   0.0880696366666667    0.2017409100000000    0.5000000000000000 C
   0.0880696366666667    0.5350742433333333    0.5000000000000000 C
   0.0880696366666668    0.8684075766666666    0.5000000000000000 C
   0.4214029700000000    0.2017409100000000    0.5000000000000000 C
   0.4214029699999999    0.5350742433333333    0.5000000000000000 C
   0.4214029700000002    0.8684075766666666    0.5000000000000000 C
   0.7547363033333332    0.2017409100000000    0.5000000000000000 C
   0.7547363033333334    0.5350742433333333    0.5000000000000000 C
   0.7547363033333333    0.8684075766666666    0.5000000000000000 C
   0.1018945200000000    0.2140296966666667    0.5000000000000000 C
   0.1018945200000000    0.5473630300000000    0.5000000000000000 C
   0.1018945200000001    0.8806963633333335    0.5000000000000000 C
   0.4352278533333334    0.2140296966666667    0.5000000000000000 C
   0.4352278533333333    0.5473630300000000    0.5000000000000000 C
   0.4352278533333334    0.8806963633333335    0.5000000000000000 C
   0.7685611866666666    0.2140296966666667    0.5000000000000000 C
   0.7685611866666666    0.5473630300000000    0.5000000000000000 C
   0.7685611866666665    0.8806963633333335    0.5000000000000000 C
   0.1157194066666667    0.2263184833333333    0.5000000000000000 C
   0.1157194066666667    0.5596518166666666    0.5000000000000000 C
   0.1157194066666667    0.8929851500000000    0.5000000000000000 C
   0.4490527400000000    0.2263184833333333    0.5000000000000000 C
   0.4490527400000000    0.5596518166666666    0.5000000000000000 C
   0.4490527400000001    0.8929851500000000    0.5000000000000000 C
   0.7823860733333332    0.2263184833333333    0.5000000000000000 C
   0.7823860733333331    0.5596518166666666    0.5000000000000000 C
   0.7823860733333332    0.8929851500000000    0.5000000000000000 C
   0.1295442900000000    0.2386072700000000    0.5000000000000000 C
   0.1295442900000001    0.5719406033333333    0.5000000000000000 C
   0.1295442900000000    0.9052739366666668    0.5000000000000000 C
   0.4628776233333333    0.2386072700000000    0.5000000000000000 C
   0.4628776233333334    0.5719406033333333    0.5000000000000000 C
   0.4628776233333334    0.9052739366666668    0.5000000000000000 C
   0.7962109566666667    0.2386072700000000    0.5000000000000000 C
   0.7962109566666665    0.5719406033333333    0.5000000000000000 C
   0.7962109566666662    0.9052739366666668    0.5000000000000000 C
   0.1433691766666667    0.2508960566666667    0.5000000000000000 C
   0.1433691766666668    0.5842293900000000    0.5000000000000000 C
   0.1433691766666667    0.9175627233333333    0.5000000000000000 C
   0.4767025099999999    0.2508960566666667    0.5000000000000000 C
   0.4767025099999999    0.5842293900000000    0.5000000000000000 C
   0.4767025100000001    0.9175627233333333    0.5000000000000000 C
   0.8100358433333333    0.2508960566666667    0.5000000000000000 C
   0.8100358433333332    0.5842293900000000    0.5000000000000000 C
   0.8100358433333333    0.9175627233333333    0.5000000000000000 C
   0.1571940600000000    0.2631848433333333    0.5000000000000000 C
   0.1571940600000001    0.5965181766666667    0.5000000000000000 C
   0.1571940600000001    0.9298515100000000    0.5000000000000000 C
   0.4905273933333331    0.2631848433333333    0.5000000000000000 C
   0.4905273933333333    0.5965181766666667    0.5000000000000000 C
   0.4905273933333335    0.9298515100000000    0.5000000000000000 C
   0.8238607266666667    0.2631848433333333    0.5000000000000000 C
   0.8238607266666667    0.5965181766666667    0.5000000000000000 C
   0.8238607266666665    0.9298515100000000    0.5000000000000000 C
   0.1710189466666667    0.2754736300000000    0.5000000000000000 C
   0.1710189466666667    0.6088069633333333    0.5000000000000000 C
   0.1710189466666668    0.9421402966666667    0.5000000000000000 C
   0.5043522799999998    0.2754736300000000    0.5000000000000000 C
   0.5043522799999999    0.6088069633333333    0.5000000000000000 C
   0.5043522800000001    0.9421402966666667    0.5000000000000000 C
   0.8376856133333334    0.2754736300000000    0.5000000000000000 C
   0.8376856133333334    0.6088069633333333    0.5000000000000000 C
   0.8376856133333332    0.9421402966666667    0.5000000000000000 C
   0.1848438300000000    0.2877624166666666    0.5000000000000000 C
   0.1848438300000001    0.6210957499999999    0.5000000000000000 C
   0.1848438300000001    0.9544290833333333    0.5000000000000000 C
   0.5181771633333334    0.2877624166666666    0.5000000000000000 C
   0.5181771633333335    0.6210957499999999    0.5000000000000000 C
   0.5181771633333333    0.9544290833333333    0.5000000000000000 C
   0.8515104966666664    0.2877624166666666    0.5000000000000000 C
   0.8515104966666667    0.6210957499999999    0.5000000000000000 C
   0.8515104966666664    0.9544290833333333    0.5000000000000000 C
   0.1986687133333334    0.3000512033333333    0.5000000000000000 C
   0.1986687133333333    0.6333845366666667    0.5000000000000000 C
   0.1986687133333334    0.9667178700000001    0.5000000000000000 C
   0.5320020466666666    0.3000512033333333    0.5000000000000000 C
   0.5320020466666666    0.6333845366666667    0.5000000000000000 C
   0.5320020466666668    0.9667178700000001    0.5000000000000000 C
   0.8653353800000000    0.3000512033333333    0.5000000000000000 C
   0.8653353800000001    0.6333845366666667    0.5000000000000000 C
   0.8653353800000001    0.9667178700000001    0.5000000000000000 C
   0.2124936000000000    0.3123399900000000    0.5000000000000000 C
   0.2124936000000001    0.6456733233333334    0.5000000000000000 C
   0.2124936000000000    0.9790066566666669    0.5000000000000000 C
   0.5458269333333331    0.3123399900000000    0.5000000000000000 C
   0.5458269333333332    0.6456733233333334    0.5000000000000000 C
   0.5458269333333332    0.9790066566666669    0.5000000000000000 C
   0.8791602666666666    0.3123399900000000    0.5000000000000000 C
   0.8791602666666665    0.6456733233333334    0.5000000000000000 C
   0.8791602666666665    0.9790066566666669    0.5000000000000000 C
   0.2263184833333334    0.3246287766666667    0.5000000000000000 C
   0.2263184833333334    0.6579621100000000    0.5000000000000000 C
   0.2263184833333335    0.9912954433333334    0.5000000000000000 C
   0.5596518166666666    0.3246287766666667    0.5000000000000000 C
   0.5596518166666667    0.6579621100000000    0.5000000000000000 C
   0.5596518166666665    0.9912954433333334    0.5000000000000000 C
   0.8929851499999999    0.3246287766666667    0.5000000000000000 C
   0.8929851499999997    0.6579621100000000    0.5000000000000000 C
   0.8929851500000000    0.9912954433333334    0.5000000000000000 C
   0.0312340000000000    0.1141833066666667    0.5000000000000000 C
   0.0312340000000000    0.4475166400000000    0.5000000000000000 C
   0.0312340000000001    0.7808499733333333    0.5000000000000000 C
   0.3645673333333333    0.1141833066666667    0.5000000000000000 C
   0.3645673333333334    0.4475166400000000    0.5000000000000000 C
   0.3645673333333335    0.7808499733333333    0.5000000000000000 C
   0.6979006666666666    0.1141833066666667    0.5000000000000000 C
   0.6979006666666666    0.4475166400000000    0.5000000000000000 C
   0.6979006666666666    0.7808499733333333    0.5000000000000000 C
   0.0450588833333334    0.1264720933333333    0.5000000000000000 C
   0.0450588833333334    0.4598054266666667    0.5000000000000000 C
   0.0450588833333334    0.7931387600000001    0.5000000000000000 C
   0.3783922166666667    0.1264720933333333    0.5000000000000000 C
   0.3783922166666666    0.4598054266666667    0.5000000000000000 C
   0.3783922166666665    0.7931387600000001    0.5000000000000000 C
   0.7117255499999997    0.1264720933333333    0.5000000000000000 C
   0.7117255499999998    0.4598054266666667    0.5000000000000000 C
   0.7117255499999998    0.7931387600000001    0.5000000000000000 C
   0.0588837700000000    0.1387608800000000    0.5000000000000000 C
   0.0588837700000000    0.4720942133333334    0.5000000000000000 C
   0.0588837700000001    0.8054275466666667    0.5000000000000000 C
   0.3922171033333333    0.1387608800000000    0.5000000000000000 C
   0.3922171033333332    0.4720942133333334    0.5000000000000000 C
   0.3922171033333336    0.8054275466666667    0.5000000000000000 C
   0.7255504366666666    0.1387608800000000    0.5000000000000000 C
   0.7255504366666666    0.4720942133333334    0.5000000000000000 C
   0.7255504366666664    0.8054275466666667    0.5000000000000000 C
   0.0727086533333333    0.1510496666666667    0.5000000000000000 C
   0.0727086533333333    0.4843830000000000    0.5000000000000000 C
   0.0727086533333334    0.8177163333333335    0.5000000000000000 C
   0.4060419866666666    0.1510496666666667    0.5000000000000000 C
   0.4060419866666666    0.4843830000000000    0.5000000000000000 C
   0.4060419866666665    0.8177163333333335    0.5000000000000000 C
   0.7393753199999997    0.1510496666666667    0.5000000000000000 C
   0.7393753199999999    0.4843830000000000    0.5000000000000000 C
   0.7393753199999996    0.8177163333333335    0.5000000000000000 C
   0.0865335366666667    0.1633384533333333    0.5000000000000000 C
   0.0865335366666667    0.4966717866666667    0.5000000000000000 C
   0.0865335366666668    0.8300051199999999    0.5000000000000000 C
   0.4198668700000000    0.1633384533333333    0.5000000000000000 C
   0.4198668700000001    0.4966717866666667    0.5000000000000000 C
   0.4198668700000001    0.8300051199999999    0.5000000000000000 C
   0.7532002033333333    0.1633384533333333    0.5000000000000000 C
   0.7532002033333333    0.4966717866666667    0.5000000000000000 C
   0.7532002033333333    0.8300051199999999    0.5000000000000000 C
   0.1003584233333333    0.1756272400000000    0.5000000000000000 C
   0.1003584233333334    0.5089605733333333    0.5000000000000000 C
   0.1003584233333334    0.8422939066666666    0.5000000000000000 C
   0.4336917566666667    0.1756272400000000    0.5000000000000000 C
   0.4336917566666665    0.5089605733333333    0.5000000000000000 C
   0.4336917566666667    0.8422939066666666    0.5000000000000000 C
   0.7670250899999999    0.1756272400000000    0.5000000000000000 C
   0.7670250899999997    0.5089605733333333    0.5000000000000000 C
   0.7670250900000001    0.8422939066666666    0.5000000000000000 C
   0.1141833066666667    0.1879160266666667    0.5000000000000000 C
   0.1141833066666667    0.5212493600000000    0.5000000000000000 C
   0.1141833066666668    0.8545826933333333    0.5000000000000000 C
   0.4475166400000000    0.1879160266666667    0.5000000000000000 C
   0.4475166400000001    0.5212493600000000    0.5000000000000000 C
   0.4475166400000000    0.8545826933333333    0.5000000000000000 C
   0.7808499733333333    0.1879160266666667    0.5000000000000000 C
   0.7808499733333329    0.5212493600000000    0.5000000000000000 C
   0.7808499733333334    0.8545826933333333    0.5000000000000000 C
   0.1280081933333334    0.2002048133333333    0.5000000000000000 C
   0.1280081933333334    0.5335381466666665    0.5000000000000000 C
   0.1280081933333334    0.8668714800000001    0.5000000000000000 C
   0.4613415266666667    0.2002048133333333    0.5000000000000000 C
   0.4613415266666667    0.5335381466666665    0.5000000000000000 C
   0.4613415266666666    0.8668714800000001    0.5000000000000000 C
   0.7946748599999999    0.2002048133333333    0.5000000000000000 C
   0.7946748599999996    0.5335381466666665    0.5000000000000000 C
   0.7946748599999996    0.8668714800000001    0.5000000000000000 C
   0.1418330766666667    0.2124936000000000    0.5000000000000000 C
   0.1418330766666667    0.5458269333333333    0.5000000000000000 C
   0.1418330766666668    0.8791602666666667    0.5000000000000000 C
   0.4751664100000000    0.2124936000000000    0.5000000000000000 C
   0.4751664100000000    0.5458269333333333    0.5000000000000000 C
   0.4751664099999999    0.8791602666666667    0.5000000000000000 C
   0.8084997433333333    0.2124936000000000    0.5000000000000000 C
   0.8084997433333333    0.5458269333333333    0.5000000000000000 C
   0.8084997433333332    0.8791602666666667    0.5000000000000000 C
   0.1556579633333333    0.2247823866666667    0.5000000000000000 C
   0.1556579633333334    0.5581157200000000    0.5000000000000000 C
   0.1556579633333334    0.8914490533333334    0.5000000000000000 C
   0.4889912966666666    0.2247823866666667    0.5000000000000000 C
   0.4889912966666666    0.5581157200000000    0.5000000000000000 C
   0.4889912966666667    0.8914490533333334    0.5000000000000000 C
   0.8223246299999998    0.2247823866666667    0.5000000000000000 C
   0.8223246300000000    0.5581157200000000    0.5000000000000000 C
   0.8223246299999996    0.8914490533333334    0.5000000000000000 C
   0.1694828466666666    0.2370711733333334    0.5000000000000000 C
   0.1694828466666667    0.5704045066666666    0.5000000000000000 C
   0.1694828466666666    0.9037378400000001    0.5000000000000000 C
   0.5028161800000001    0.2370711733333334    0.5000000000000000 C
   0.5028161799999999    0.5704045066666666    0.5000000000000000 C
   0.5028161799999999    0.9037378400000001    0.5000000000000000 C
   0.8361495133333332    0.2370711733333334    0.5000000000000000 C
   0.8361495133333331    0.5704045066666666    0.5000000000000000 C
   0.8361495133333330    0.9037378400000001    0.5000000000000000 C
   0.1833077333333333    0.2493599600000000    0.5000000000000000 C
   0.1833077333333333    0.5826932933333334    0.5000000000000000 C
   0.1833077333333332    0.9160266266666667    0.5000000000000000 C
   0.5166410666666666    0.2493599600000000    0.5000000000000000 C
   0.5166410666666665    0.5826932933333334    0.5000000000000000 C
   0.5166410666666666    0.9160266266666667    0.5000000000000000 C
   0.8499743999999998    0.2493599600000000    0.5000000000000000 C
   0.8499743999999998    0.5826932933333334    0.5000000000000000 C
   0.8499743999999997    0.9160266266666667    0.5000000000000000 C
   0.1971326166666667    0.2616487466666667    0.5000000000000000 C
   0.1971326166666667    0.5949820800000000    0.5000000000000000 C
   0.1971326166666668    0.9283154133333335    0.5000000000000000 C
   0.5304659500000000    0.2616487466666667    0.5000000000000000 C
   0.5304659500000000    0.5949820800000000    0.5000000000000000 C
   0.5304659500000001    0.9283154133333335    0.5000000000000000 C
   0.8637992833333333    0.2616487466666667    0.5000000000000000 C
   0.8637992833333331    0.5949820800000000    0.5000000000000000 C
   0.8637992833333330    0.9283154133333335    0.5000000000000000 C
   0.2109575000000000    0.2739375333333333    0.5000000000000000 C
   0.2109575000000000    0.6072708666666666    0.5000000000000000 C
   0.2109575000000001    0.9406042000000000    0.5000000000000000 C
   0.5442908333333333    0.2739375333333333    0.5000000000000000 C
   0.5442908333333333    0.6072708666666666    0.5000000000000000 C
   0.5442908333333336    0.9406042000000000    0.5000000000000000 C
   0.8776241666666668    0.2739375333333333    0.5000000000000000 C
   0.8776241666666666    0.6072708666666666    0.5000000000000000 C
   0.8776241666666666    0.9406042000000000    0.5000000000000000 C
   0.2247823866666667    0.2862263200000000    0.5000000000000000 C
   0.2247823866666666    0.6195596533333333    0.5000000000000000 C
   0.2247823866666668    0.9528929866666666    0.5000000000000000 C
   0.5581157200000000    0.2862263200000000    0.5000000000000000 C
   0.5581157200000000    0.6195596533333333    0.5000000000000000 C
   0.5581157200000001    0.9528929866666666    0.5000000000000000 C
   0.8914490533333335    0.2862263200000000    0.5000000000000000 C
   0.8914490533333330    0.6195596533333333    0.5000000000000000 C
   0.8914490533333331    0.9528929866666666    0.5000000000000000 C
   0.2386072700000000    0.2985151033333333    0.5000000000000000 C
   0.2386072700000000    0.6318484366666667    0.5000000000000000 C
   0.2386072700000001    0.9651817700000000    0.5000000000000000 C
   0.5719406033333332    0.2985151033333333    0.5000000000000000 C
   0.5719406033333333    0.6318484366666667    0.5000000000000000 C
   0.5719406033333334    0.9651817700000000    0.5000000000000000 C
   0.9052739366666666    0.2985151033333333    0.5000000000000000 C
   0.9052739366666666    0.6318484366666667    0.5000000000000000 C
   0.9052739366666664    0.9651817700000000    0.5000000000000000 C
   0.2524321566666667    0.3108038900000000    0.5000000000000000 C
   0.2524321566666667    0.6441372233333332    0.5000000000000000 C
   0.2524321566666667    0.9774705566666667    0.5000000000000000 C
   0.5857654900000001    0.3108038900000000    0.5000000000000000 C
   0.5857654899999999    0.6441372233333332    0.5000000000000000 C
   0.5857654900000002    0.9774705566666667    0.5000000000000000 C
   0.9190988233333333    0.3108038900000000    0.5000000000000000 C
   0.9190988233333330    0.6441372233333332    0.5000000000000000 C
   0.9190988233333333    0.9774705566666667    0.5000000000000000 C
   0.2662570400000001    0.3230926766666667    0.5000000000000000 C
   0.2662570400000001    0.6564260100000000    0.5000000000000000 C
   0.2662570400000002    0.9897593433333333    0.5000000000000000 C
   0.5995903733333333    0.3230926766666667    0.5000000000000000 C
   0.5995903733333333    0.6564260100000000    0.5000000000000000 C
   0.5995903733333335    0.9897593433333333    0.5000000000000000 C
   0.9329237066666667    0.3230926766666667    0.5000000000000000 C
   0.9329237066666667    0.6564260100000000    0.5000000000000000 C
   0.9329237066666668    0.9897593433333333    0.5000000000000000 C
   0.0296979000000000    0.0757808500000000    0.5000000000000000 C
   0.0296979000000000    0.4091141833333334    0.5000000000000000 C
   0.0296979000000000    0.7424475166666668    0.5000000000000000 C
   0.3630312333333333    0.0757808500000000    0.5000000000000000 C
   0.3630312333333332    0.4091141833333334    0.5000000000000000 C
   0.3630312333333334    0.7424475166666668    0.5000000000000000 C
   0.6963645666666667    0.0757808500000000    0.5000000000000000 C
   0.6963645666666666    0.4091141833333334    0.5000000000000000 C
   0.6963645666666664    0.7424475166666668    0.5000000000000000 C
   0.0435227866666667    0.0880696366666667    0.5000000000000000 C
   0.0435227866666667    0.4214029700000000    0.5000000000000000 C
   0.0435227866666667    0.7547363033333334    0.5000000000000000 C
   0.3768561200000000    0.0880696366666667    0.5000000000000000 C
   0.3768561199999999    0.4214029700000000    0.5000000000000000 C
   0.3768561200000000    0.7547363033333334    0.5000000000000000 C
   0.7101894533333333    0.0880696366666667    0.5000000000000000 C
   0.7101894533333333    0.4214029700000000    0.5000000000000000 C
   0.7101894533333333    0.7547363033333334    0.5000000000000000 C
   0.0573476700000000    0.1003584233333333    0.5000000000000000 C
   0.0573476700000000    0.4336917566666668    0.5000000000000000 C
   0.0573476700000000    0.7670250900000000    0.5000000000000000 C
   0.3906810033333333    0.1003584233333333    0.5000000000000000 C
   0.3906810033333333    0.4336917566666668    0.5000000000000000 C
   0.3906810033333334    0.7670250900000000    0.5000000000000000 C
   0.7240143366666667    0.1003584233333333    0.5000000000000000 C
   0.7240143366666665    0.4336917566666668    0.5000000000000000 C
   0.7240143366666668    0.7670250900000000    0.5000000000000000 C
   0.0711725566666667    0.1126472100000000    0.5000000000000000 C
   0.0711725566666667    0.4459805433333333    0.5000000000000000 C
   0.0711725566666667    0.7793138766666666    0.5000000000000000 C
   0.4045058900000000    0.1126472100000000    0.5000000000000000 C
   0.4045058900000000    0.4459805433333333    0.5000000000000000 C
   0.4045058900000001    0.7793138766666666    0.5000000000000000 C
   0.7378392233333333    0.1126472100000000    0.5000000000000000 C
   0.7378392233333332    0.4459805433333333    0.5000000000000000 C
   0.7378392233333334    0.7793138766666666    0.5000000000000000 C
   0.0849974400000000    0.1249359966666667    0.5000000000000000 C
   0.0849974400000000    0.4582693299999999    0.5000000000000000 C
   0.0849974400000000    0.7916026633333334    0.5000000000000000 C
   0.4183307733333334    0.1249359966666667    0.5000000000000000 C
   0.4183307733333333    0.4582693299999999    0.5000000000000000 C
   0.4183307733333333    0.7916026633333334    0.5000000000000000 C
   0.7516641066666666    0.1249359966666667    0.5000000000000000 C
   0.7516641066666666    0.4582693299999999    0.5000000000000000 C
   0.7516641066666666    0.7916026633333334    0.5000000000000000 C
   0.0988223233333334    0.1372247833333333    0.5000000000000000 C
   0.0988223233333334    0.4705581166666666    0.5000000000000000 C
   0.0988223233333334    0.8038914500000002    0.5000000000000000 C
   0.4321556566666666    0.1372247833333333    0.5000000000000000 C
   0.4321556566666665    0.4705581166666666    0.5000000000000000 C
   0.4321556566666668    0.8038914500000002    0.5000000000000000 C
   0.7654889900000000    0.1372247833333333    0.5000000000000000 C
   0.7654889900000001    0.4705581166666666    0.5000000000000000 C
   0.7654889900000001    0.8038914500000002    0.5000000000000000 C
   0.1126472100000000    0.1495135700000000    0.5000000000000000 C
   0.1126472100000000    0.4828469033333334    0.5000000000000000 C
   0.1126472100000001    0.8161802366666666    0.5000000000000000 C
   0.4459805433333334    0.1495135700000000    0.5000000000000000 C
   0.4459805433333333    0.4828469033333334    0.5000000000000000 C
   0.4459805433333334    0.8161802366666666    0.5000000000000000 C
   0.7793138766666665    0.1495135700000000    0.5000000000000000 C
   0.7793138766666667    0.4828469033333334    0.5000000000000000 C
   0.7793138766666666    0.8161802366666666    0.5000000000000000 C
   0.1264720933333334    0.1618023566666667    0.5000000000000000 C
   0.1264720933333334    0.4951356900000000    0.5000000000000000 C
   0.1264720933333335    0.8284690233333333    0.5000000000000000 C
   0.4598054266666667    0.1618023566666667    0.5000000000000000 C
   0.4598054266666665    0.4951356900000000    0.5000000000000000 C
   0.4598054266666667    0.8284690233333333    0.5000000000000000 C
   0.7931387600000001    0.1618023566666667    0.5000000000000000 C
   0.7931387599999999    0.4951356900000000    0.5000000000000000 C
   0.7931387599999996    0.8284690233333333    0.5000000000000000 C
   0.1402969800000000    0.1740911433333333    0.5000000000000000 C
   0.1402969800000000    0.5074244766666667    0.5000000000000000 C
   0.1402969800000001    0.8407578100000000    0.5000000000000000 C
   0.4736303133333333    0.1740911433333333    0.5000000000000000 C
   0.4736303133333333    0.5074244766666667    0.5000000000000000 C
   0.4736303133333334    0.8407578100000000    0.5000000000000000 C
   0.8069636466666666    0.1740911433333333    0.5000000000000000 C
   0.8069636466666666    0.5074244766666667    0.5000000000000000 C
   0.8069636466666665    0.8407578100000000    0.5000000000000000 C
   0.1541218633333333    0.1863799266666667    0.5000000000000000 C
   0.1541218633333334    0.5197132600000000    0.5000000000000000 C
   0.1541218633333334    0.8530465933333334    0.5000000000000000 C
   0.4874551966666666    0.1863799266666667    0.5000000000000000 C
   0.4874551966666666    0.5197132600000000    0.5000000000000000 C
   0.4874551966666668    0.8530465933333334    0.5000000000000000 C
   0.8207885300000000    0.1863799266666667    0.5000000000000000 C
   0.8207885300000000    0.5197132600000000    0.5000000000000000 C
   0.8207885299999996    0.8530465933333334    0.5000000000000000 C
   0.1679467500000001    0.1986687133333333    0.5000000000000000 C
   0.1679467500000000    0.5320020466666667    0.5000000000000000 C
   0.1679467500000001    0.8653353800000000    0.5000000000000000 C
   0.5012800833333333    0.1986687133333333    0.5000000000000000 C
   0.5012800833333332    0.5320020466666667    0.5000000000000000 C
   0.5012800833333334    0.8653353800000000    0.5000000000000000 C
   0.8346134166666668    0.1986687133333333    0.5000000000000000 C
   0.8346134166666666    0.5320020466666667    0.5000000000000000 C
   0.8346134166666662    0.8653353800000000    0.5000000000000000 C
   0.1817716333333333    0.2109575000000000    0.5000000000000000 C
   0.1817716333333334    0.5442908333333333    0.5000000000000000 C
   0.1817716333333335    0.8776241666666668    0.5000000000000000 C
   0.5151049666666666    0.2109575000000000    0.5000000000000000 C
   0.5151049666666667    0.5442908333333333    0.5000000000000000 C
   0.5151049666666668    0.8776241666666668    0.5000000000000000 C
   0.8484383000000001    0.2109575000000000    0.5000000000000000 C
   0.8484383000000001    0.5442908333333333    0.5000000000000000 C
   0.8484382999999998    0.8776241666666668    0.5000000000000000 C
   0.1955965166666667    0.2232462866666667    0.5000000000000000 C
   0.1955965166666668    0.5565796200000001    0.5000000000000000 C
   0.1955965166666667    0.8899129533333333    0.5000000000000000 C
   0.5289298500000001    0.2232462866666667    0.5000000000000000 C
   0.5289298500000001    0.5565796200000001    0.5000000000000000 C
   0.5289298500000000    0.8899129533333333    0.5000000000000000 C
   0.8622631833333333    0.2232462866666667    0.5000000000000000 C
   0.8622631833333334    0.5565796200000001    0.5000000000000000 C
   0.8622631833333332    0.8899129533333333    0.5000000000000000 C
   0.2094214033333334    0.2355350733333334    0.5000000000000000 C
   0.2094214033333334    0.5688684066666666    0.5000000000000000 C
   0.2094214033333333    0.9022017400000001    0.5000000000000000 C
   0.5427547366666666    0.2355350733333334    0.5000000000000000 C
   0.5427547366666667    0.5688684066666666    0.5000000000000000 C
   0.5427547366666666    0.9022017400000001    0.5000000000000000 C
   0.8760880699999998    0.2355350733333334    0.5000000000000000 C
   0.8760880700000000    0.5688684066666666    0.5000000000000000 C
   0.8760880699999997    0.9022017400000001    0.5000000000000000 C
   0.2232462866666667    0.2478238600000000    0.5000000000000000 C
   0.2232462866666667    0.5811571933333334    0.5000000000000000 C
   0.2232462866666666    0.9144905266666666    0.5000000000000000 C
   0.5565796199999999    0.2478238600000000    0.5000000000000000 C
   0.5565796200000001    0.5811571933333334    0.5000000000000000 C
   0.5565796200000002    0.9144905266666666    0.5000000000000000 C
   0.8899129533333334    0.2478238600000000    0.5000000000000000 C
   0.8899129533333333    0.5811571933333334    0.5000000000000000 C
   0.8899129533333332    0.9144905266666666    0.5000000000000000 C
   0.2370711733333334    0.2601126466666667    0.5000000000000000 C
   0.2370711733333334    0.5934459800000000    0.5000000000000000 C
   0.2370711733333334    0.9267793133333334    0.5000000000000000 C
   0.5704045066666665    0.2601126466666667    0.5000000000000000 C
   0.5704045066666665    0.5934459800000000    0.5000000000000000 C
   0.5704045066666670    0.9267793133333334    0.5000000000000000 C
   0.9037378400000000    0.2601126466666667    0.5000000000000000 C
   0.9037378400000001    0.5934459800000000    0.5000000000000000 C
   0.9037378400000000    0.9267793133333334    0.5000000000000000 C
   0.2508960566666668    0.2724014333333333    0.5000000000000000 C
   0.2508960566666669    0.6057347666666667    0.5000000000000000 C
   0.2508960566666668    0.9390681000000000    0.5000000000000000 C
   0.5842293900000001    0.2724014333333333    0.5000000000000000 C
   0.5842293900000000    0.6057347666666667    0.5000000000000000 C
   0.5842293900000003    0.9390681000000000    0.5000000000000000 C
   0.9175627233333333    0.2724014333333333    0.5000000000000000 C
   0.9175627233333333    0.6057347666666667    0.5000000000000000 C
   0.9175627233333333    0.9390681000000000    0.5000000000000000 C
   0.2647209433333333    0.2846902200000000    0.5000000000000000 C
   0.2647209433333335    0.6180235533333333    0.5000000000000000 C
   0.2647209433333333    0.9513568866666666    0.5000000000000000 C
   0.5980542766666667    0.2846902200000000    0.5000000000000000 C
   0.5980542766666670    0.6180235533333333    0.5000000000000000 C
   0.5980542766666667    0.9513568866666666    0.5000000000000000 C
   0.9313876099999999    0.2846902200000000    0.5000000000000000 C
   0.9313876100000001    0.6180235533333333    0.5000000000000000 C
   0.9313876099999997    0.9513568866666666    0.5000000000000000 C
   0.2785458266666667    0.2969790066666667    0.5000000000000000 C
   0.2785458266666668    0.6303123399999999    0.5000000000000000 C
   0.2785458266666666    0.9636456733333334    0.5000000000000000 C
   0.6118791600000000    0.2969790066666667    0.5000000000000000 C
   0.6118791600000001    0.6303123399999999    0.5000000000000000 C
   0.6118791600000003    0.9636456733333334    0.5000000000000000 C
   0.9452124933333335    0.2969790066666667    0.5000000000000000 C
   0.9452124933333336    0.6303123399999999    0.5000000000000000 C
   0.9452124933333333    0.9636456733333334    0.5000000000000000 C
   0.2923707133333334    0.3092677933333333    0.5000000000000000 C
   0.2923707133333333    0.6426011266666667    0.5000000000000000 C
   0.2923707133333333    0.9759344599999999    0.5000000000000000 C
   0.6257040466666665    0.3092677933333333    0.5000000000000000 C
   0.6257040466666667    0.6426011266666667    0.5000000000000000 C
   0.6257040466666670    0.9759344599999999    0.5000000000000000 C
   0.9590373799999998    0.3092677933333333    0.5000000000000000 C
   0.9590373799999999    0.6426011266666667    0.5000000000000000 C
   0.9590373800000001    0.9759344599999999    0.5000000000000000 C
   0.3061955966666668    0.3215565800000000    0.5000000000000000 C
   0.3061955966666669    0.6548899133333334    0.5000000000000000 C
   0.3061955966666667    0.9882232466666667    0.5000000000000000 C
   0.6395289300000001    0.3215565800000000    0.5000000000000000 C
   0.6395289300000000    0.6548899133333334    0.5000000000000000 C
   0.6395289300000002    0.9882232466666667    0.5000000000000000 C
   0.9728622633333334    0.3215565800000000    0.5000000000000000 C
   0.9728622633333331    0.6548899133333334    0.5000000000000000 C
   0.9728622633333333    0.9882232466666667    0.5000000000000000 C
   0.0281618033333333    0.0373783933333333    0.5000000000000000 C
   0.0281618033333334    0.3707117266666667    0.5000000000000000 C
   0.0281618033333334    0.7040450600000000    0.5000000000000000 C
   0.3614951366666665    0.0373783933333333    0.5000000000000000 C
   0.3614951366666666    0.3707117266666667    0.5000000000000000 C
   0.3614951366666667    0.7040450600000000    0.5000000000000000 C
   0.6948284699999998    0.0373783933333333    0.5000000000000000 C
   0.6948284699999999    0.3707117266666667    0.5000000000000000 C
   0.6948284699999998    0.7040450600000000    0.5000000000000000 C
   0.0419866866666667    0.0496671800000000    0.5000000000000000 C
   0.0419866866666667    0.3830005133333333    0.5000000000000000 C
   0.0419866866666667    0.7163338466666668    0.5000000000000000 C
   0.3753200199999999    0.0496671800000000    0.5000000000000000 C
   0.3753200199999999    0.3830005133333333    0.5000000000000000 C
   0.3753200200000000    0.7163338466666668    0.5000000000000000 C
   0.7086533533333333    0.0496671800000000    0.5000000000000000 C
   0.7086533533333331    0.3830005133333333    0.5000000000000000 C
   0.7086533533333332    0.7163338466666668    0.5000000000000000 C
   0.0558115733333333    0.0619559666666667    0.5000000000000000 C
   0.0558115733333333    0.3952893000000000    0.5000000000000000 C
   0.0558115733333334    0.7286226333333334    0.5000000000000000 C
   0.3891449066666666    0.0619559666666667    0.5000000000000000 C
   0.3891449066666665    0.3952893000000000    0.5000000000000000 C
   0.3891449066666667    0.7286226333333334    0.5000000000000000 C
   0.7224782399999998    0.0619559666666667    0.5000000000000000 C
   0.7224782399999998    0.3952893000000000    0.5000000000000000 C
   0.7224782399999998    0.7286226333333334    0.5000000000000000 C
   0.0696364566666667    0.0742447500000000    0.5000000000000000 C
   0.0696364566666667    0.4075780833333333    0.5000000000000000 C
   0.0696364566666667    0.7409114166666666    0.5000000000000000 C
   0.4029697900000000    0.0742447500000000    0.5000000000000000 C
   0.4029697900000000    0.4075780833333333    0.5000000000000000 C
   0.4029697900000001    0.7409114166666666    0.5000000000000000 C
   0.7363031233333333    0.0742447500000000    0.5000000000000000 C
   0.7363031233333333    0.4075780833333333    0.5000000000000000 C
   0.7363031233333335    0.7409114166666666    0.5000000000000000 C
   0.0834613400000000    0.0865335366666667    0.5000000000000000 C
   0.0834613400000000    0.4198668700000000    0.5000000000000000 C
   0.0834613400000000    0.7532002033333335    0.5000000000000000 C
   0.4167946733333333    0.0865335366666667    0.5000000000000000 C
   0.4167946733333333    0.4198668700000000    0.5000000000000000 C
   0.4167946733333333    0.7532002033333335    0.5000000000000000 C
   0.7501280066666667    0.0865335366666667    0.5000000000000000 C
   0.7501280066666666    0.4198668700000000    0.5000000000000000 C
   0.7501280066666667    0.7532002033333335    0.5000000000000000 C
   0.0972862266666667    0.0988223233333333    0.5000000000000000 C
   0.0972862266666668    0.4321556566666667    0.5000000000000000 C
   0.0972862266666667    0.7654889900000000    0.5000000000000000 C
   0.4306195600000000    0.0988223233333333    0.5000000000000000 C
   0.4306195600000000    0.4321556566666667    0.5000000000000000 C
   0.4306195600000000    0.7654889900000000    0.5000000000000000 C
   0.7639528933333332    0.0988223233333333    0.5000000000000000 C
   0.7639528933333332    0.4321556566666667    0.5000000000000000 C
   0.7639528933333332    0.7654889900000000    0.5000000000000000 C
   0.1111111111111111    0.1111111111111111    0.5000000000000000 C
   0.1111111111111111    0.4444444444444444    0.5000000000000000 C
   0.1111111111111111    0.7777777777777779    0.5000000000000000 C
   0.4444444444444444    0.1111111111111111    0.5000000000000000 C
   0.4444444444444445    0.4444444444444444    0.5000000000000000 C
   0.4444444444444444    0.7777777777777779    0.5000000000000000 C
   0.7777777777777777    0.1111111111111111    0.5000000000000000 C
   0.7777777777777777    0.4444444444444444    0.5000000000000000 C
   0.7777777777777778    0.7777777777777779    0.5000000000000000 C
   0.1249359966666667    0.1233998966666667    0.5000000000000000 C
   0.1249359966666667    0.4567332300000000    0.5000000000000000 C
   0.1249359966666666    0.7900665633333334    0.5000000000000000 C
   0.4582693300000000    0.1233998966666667    0.5000000000000000 C
   0.4582693299999999    0.4567332300000000    0.5000000000000000 C
   0.4582693299999999    0.7900665633333334    0.5000000000000000 C
   0.7916026633333332    0.1233998966666667    0.5000000000000000 C
   0.7916026633333332    0.4567332300000000    0.5000000000000000 C
   0.7916026633333333    0.7900665633333334    0.5000000000000000 C
   0.1387608800000000    0.1356886833333333    0.5000000000000000 C
   0.1387608800000001    0.4690220166666667    0.5000000000000000 C
   0.1387608800000001    0.8023553500000000    0.5000000000000000 C
   0.4720942133333333    0.1356886833333333    0.5000000000000000 C
   0.4720942133333332    0.4690220166666667    0.5000000000000000 C
   0.4720942133333335    0.8023553500000000    0.5000000000000000 C
   0.8054275466666667    0.1356886833333333    0.5000000000000000 C
   0.8054275466666667    0.4690220166666667    0.5000000000000000 C
   0.8054275466666667    0.8023553500000000    0.5000000000000000 C
   0.1525857666666667    0.1479774700000000    0.5000000000000000 C
   0.1525857666666667    0.4813108033333333    0.5000000000000000 C
   0.1525857666666667    0.8146441366666668    0.5000000000000000 C
   0.4859190999999999    0.1479774700000000    0.5000000000000000 C
   0.4859191000000000    0.4813108033333333    0.5000000000000000 C
   0.4859190999999999    0.8146441366666668    0.5000000000000000 C
   0.8192524333333333    0.1479774700000000    0.5000000000000000 C
   0.8192524333333331    0.4813108033333333    0.5000000000000000 C
   0.8192524333333333    0.8146441366666668    0.5000000000000000 C
   0.1664106500000000    0.1602662566666667    0.5000000000000000 C
   0.1664106500000000    0.4935995900000000    0.5000000000000000 C
   0.1664106500000002    0.8269329233333332    0.5000000000000000 C
   0.4997439833333333    0.1602662566666667    0.5000000000000000 C
   0.4997439833333333    0.4935995900000000    0.5000000000000000 C
   0.4997439833333334    0.8269329233333332    0.5000000000000000 C
   0.8330773166666667    0.1602662566666667    0.5000000000000000 C
   0.8330773166666665    0.4935995900000000    0.5000000000000000 C
   0.8330773166666670    0.8269329233333332    0.5000000000000000 C
   0.1802355366666667    0.1725550433333334    0.5000000000000000 C
   0.1802355366666667    0.5058883766666666    0.5000000000000000 C
   0.1802355366666668    0.8392217099999999    0.5000000000000000 C
   0.5135688700000000    0.1725550433333334    0.5000000000000000 C
   0.5135688699999998    0.5058883766666666    0.5000000000000000 C
   0.5135688700000001    0.8392217099999999    0.5000000000000000 C
   0.8469022033333332    0.1725550433333334    0.5000000000000000 C
   0.8469022033333330    0.5058883766666666    0.5000000000000000 C
   0.8469022033333333    0.8392217099999999    0.5000000000000000 C
   0.1940604200000000    0.1848438300000000    0.5000000000000000 C
   0.1940604200000000    0.5181771633333334    0.5000000000000000 C
   0.1940604200000000    0.8515104966666667    0.5000000000000000 C
   0.5273937533333334    0.1848438300000000    0.5000000000000000 C
   0.5273937533333332    0.5181771633333334    0.5000000000000000 C
   0.5273937533333333    0.8515104966666667    0.5000000000000000 C
   0.8607270866666666    0.1848438300000000    0.5000000000000000 C
   0.8607270866666666    0.5181771633333334    0.5000000000000000 C
   0.8607270866666665    0.8515104966666667    0.5000000000000000 C
   0.2078853033333334    0.1971326166666667    0.5000000000000000 C
   0.2078853033333333    0.5304659500000000    0.5000000000000000 C
   0.2078853033333335    0.8637992833333334    0.5000000000000000 C
   0.5412186366666667    0.1971326166666667    0.5000000000000000 C
   0.5412186366666666    0.5304659500000000    0.5000000000000000 C
   0.5412186366666667    0.8637992833333334    0.5000000000000000 C
   0.8745519699999998    0.1971326166666667    0.5000000000000000 C
   0.8745519700000000    0.5304659500000000    0.5000000000000000 C
   0.8745519700000002    0.8637992833333334    0.5000000000000000 C
   0.2217101900000000    0.2094214033333333    0.5000000000000000 C
   0.2217101900000000    0.5427547366666666    0.5000000000000000 C
   0.2217101900000000    0.8760880700000000    0.5000000000000000 C
   0.5550435233333334    0.2094214033333333    0.5000000000000000 C
   0.5550435233333332    0.5427547366666666    0.5000000000000000 C
   0.5550435233333334    0.8760880700000000    0.5000000000000000 C
   0.8883768566666668    0.2094214033333333    0.5000000000000000 C
   0.8883768566666665    0.5427547366666666    0.5000000000000000 C
   0.8883768566666667    0.8760880700000000    0.5000000000000000 C
   0.2355350733333334    0.2217101900000000    0.5000000000000000 C
   0.2355350733333333    0.5550435233333333    0.5000000000000000 C
   0.2355350733333332    0.8883768566666669    0.5000000000000000 C
   0.5688684066666666    0.2217101900000000    0.5000000000000000 C
   0.5688684066666665    0.5550435233333333    0.5000000000000000 C
   0.5688684066666666    0.8883768566666669    0.5000000000000000 C
   0.9022017400000000    0.2217101900000000    0.5000000000000000 C
   0.9022017400000001    0.5550435233333333    0.5000000000000000 C
   0.9022017399999999    0.8883768566666669    0.5000000000000000 C
   0.2493599600000000    0.2339989766666666    0.5000000000000000 C
   0.2493599599999999    0.5673323100000001    0.5000000000000000 C
   0.2493599599999999    0.9006656433333333    0.5000000000000000 C
   0.5826932933333333    0.2339989766666666    0.5000000000000000 C
   0.5826932933333333    0.5673323100000001    0.5000000000000000 C
   0.5826932933333333    0.9006656433333333    0.5000000000000000 C
   0.9160266266666667    0.2339989766666666    0.5000000000000000 C
   0.9160266266666665    0.5673323100000001    0.5000000000000000 C
   0.9160266266666668    0.9006656433333333    0.5000000000000000 C
   0.2631848433333334    0.2462877633333333    0.5000000000000000 C
   0.2631848433333335    0.5796210966666666    0.5000000000000000 C
   0.2631848433333334    0.9129544300000000    0.5000000000000000 C
   0.5965181766666668    0.2462877633333333    0.5000000000000000 C
   0.5965181766666667    0.5796210966666666    0.5000000000000000 C
   0.5965181766666667    0.9129544300000000    0.5000000000000000 C
   0.9298515099999999    0.2462877633333333    0.5000000000000000 C
   0.9298515100000000    0.5796210966666666    0.5000000000000000 C
   0.9298515100000000    0.9129544300000000    0.5000000000000000 C
   0.2770097300000000    0.2585765500000000    0.5000000000000000 C
   0.2770097300000001    0.5919098833333334    0.5000000000000000 C
   0.2770097300000002    0.9252432166666666    0.5000000000000000 C
   0.6103430633333333    0.2585765500000000    0.5000000000000000 C
   0.6103430633333333    0.5919098833333334    0.5000000000000000 C
   0.6103430633333334    0.9252432166666666    0.5000000000000000 C
   0.9436763966666665    0.2585765500000000    0.5000000000000000 C
   0.9436763966666666    0.5919098833333334    0.5000000000000000 C
   0.9436763966666667    0.9252432166666666    0.5000000000000000 C
   0.2908346133333333    0.2708653366666667    0.5000000000000000 C
   0.2908346133333334    0.6041986699999999    0.5000000000000000 C
   0.2908346133333333    0.9375320033333333    0.5000000000000000 C
   0.6241679466666668    0.2708653366666667    0.5000000000000000 C
   0.6241679466666666    0.6041986699999999    0.5000000000000000 C
   0.6241679466666666    0.9375320033333333    0.5000000000000000 C
   0.9575012800000000    0.2708653366666667    0.5000000000000000 C
   0.9575012799999999    0.6041986699999999    0.5000000000000000 C
   0.9575012799999999    0.9375320033333333    0.5000000000000000 C
   0.3046594966666668    0.2831541233333333    0.5000000000000000 C
   0.3046594966666668    0.6164874566666666    0.5000000000000000 C
   0.3046594966666667    0.9498207900000000    0.5000000000000000 C
   0.6379928300000000    0.2831541233333333    0.5000000000000000 C
   0.6379928300000000    0.6164874566666666    0.5000000000000000 C
   0.6379928300000000    0.9498207900000000    0.5000000000000000 C
   0.9713261633333332    0.2831541233333333    0.5000000000000000 C
   0.9713261633333331    0.6164874566666666    0.5000000000000000 C
   0.9713261633333332    0.9498207900000000    0.5000000000000000 C
   0.3184843833333334    0.2954429100000000    0.5000000000000000 C
   0.3184843833333333    0.6287762433333334    0.5000000000000000 C
   0.3184843833333335    0.9621095766666666    0.5000000000000000 C
   0.6518177166666667    0.2954429100000000    0.5000000000000000 C
   0.6518177166666665    0.6287762433333334    0.5000000000000000 C
   0.6518177166666668    0.9621095766666666    0.5000000000000000 C
   0.9851510499999999    0.2954429100000000    0.5000000000000000 C
   0.9851510499999999    0.6287762433333334    0.5000000000000000 C
   0.9851510499999998    0.9621095766666666    0.5000000000000000 C
   0.3323092666666667    0.3077316933333334    0.5000000000000000 C
   0.3323092666666667    0.6410650266666668    0.5000000000000000 C
   0.3323092666666668    0.9743983600000000    0.5000000000000000 C
   0.6656426000000001    0.3077316933333334    0.5000000000000000 C
   0.6656426000000000    0.6410650266666668    0.5000000000000000 C
   0.6656426000000001    0.9743983600000000    0.5000000000000000 C
   0.9989759333333332    0.3077316933333334    0.5000000000000000 C
   0.9989759333333333    0.6410650266666668    0.5000000000000000 C
   0.9989759333333331    0.9743983600000000    0.5000000000000000 C
   0.0128008200000000    0.3200204800000000    0.5000000000000000 C
   0.0128008200000001    0.6533538133333333    0.5000000000000000 C
   0.0128008200000000    0.9866871466666668    0.5000000000000000 C
   0.3461341533333334    0.3200204800000000    0.5000000000000000 C
   0.3461341533333332    0.6533538133333333    0.5000000000000000 C
   0.3461341533333334    0.9866871466666668    0.5000000000000000 C
   0.6794674866666668    0.3200204800000000    0.5000000000000000 C
   0.6794674866666667    0.6533538133333333    0.5000000000000000 C
   0.6794674866666666    0.9866871466666668    0.5000000000000000 C
   0.0266257033333334    0.3323092666666667    0.5000000000000000 C
   0.0266257033333334    0.6656426000000000    0.5000000000000000 C
   0.0266257033333334    0.9989759333333332    0.5000000000000000 C
   0.3599590366666666    0.3323092666666667    0.5000000000000000 C
   0.3599590366666667    0.6656426000000000    0.5000000000000000 C
   0.3599590366666667    0.9989759333333332    0.5000000000000000 C
   0.6932923699999999    0.3323092666666667    0.5000000000000000 C
   0.6932923700000000    0.6656426000000000    0.5000000000000000 C
   0.6932923699999999    0.9989759333333332    0.5000000000000000 C
   0.0404505900000000    0.0112647200000000    0.5000000000000000 C
   0.0404505900000001    0.3445980533333333    0.5000000000000000 C
   0.0404505900000000    0.6779313866666667    0.5000000000000000 C
   0.3737839233333333    0.0112647200000000    0.5000000000000000 C
   0.3737839233333333    0.3445980533333333    0.5000000000000000 C
   0.3737839233333333    0.6779313866666667    0.5000000000000000 C
   0.7071172566666666    0.0112647200000000    0.5000000000000000 C
   0.7071172566666665    0.3445980533333333    0.5000000000000000 C
   0.7071172566666666    0.6779313866666667    0.5000000000000000 C
   0.0542754733333333    0.0235535066666667    0.5000000000000000 C
   0.0542754733333334    0.3568868400000000    0.5000000000000000 C
   0.0542754733333333    0.6902201733333335    0.5000000000000000 C
   0.3876088066666667    0.0235535066666667    0.5000000000000000 C
   0.3876088066666666    0.3568868400000000    0.5000000000000000 C
   0.3876088066666666    0.6902201733333335    0.5000000000000000 C
   0.7209421400000000    0.0235535066666667    0.5000000000000000 C
   0.7209421399999999    0.3568868400000000    0.5000000000000000 C
   0.7209421400000000    0.6902201733333335    0.5000000000000000 C
   0.0681003600000000    0.0358422933333333    0.5000000000000000 C
   0.0681003600000000    0.3691756266666667    0.5000000000000000 C
   0.0681003600000001    0.7025089600000000    0.5000000000000000 C
   0.4014336933333333    0.0358422933333333    0.5000000000000000 C
   0.4014336933333333    0.3691756266666667    0.5000000000000000 C
   0.4014336933333333    0.7025089600000000    0.5000000000000000 C
   0.7347670266666666    0.0358422933333333    0.5000000000000000 C
   0.7347670266666664    0.3691756266666667    0.5000000000000000 C
   0.7347670266666666    0.7025089600000000    0.5000000000000000 C
   0.0819252433333334    0.0481310800000000    0.5000000000000000 C
   0.0819252433333334    0.3814644133333333    0.5000000000000000 C
   0.0819252433333334    0.7147977466666666    0.5000000000000000 C
   0.4152585766666666    0.0481310800000000    0.5000000000000000 C
   0.4152585766666666    0.3814644133333333    0.5000000000000000 C
   0.4152585766666669    0.7147977466666666    0.5000000000000000 C
   0.7485919099999998    0.0481310800000000    0.5000000000000000 C
   0.7485919099999999    0.3814644133333333    0.5000000000000000 C
   0.7485919099999998    0.7147977466666666    0.5000000000000000 C
   0.0957501266666667    0.0604198666666667    0.5000000000000000 C
   0.0957501266666667    0.3937532000000000    0.5000000000000000 C
   0.0957501266666666    0.7270865333333334    0.5000000000000000 C
   0.4290834600000000    0.0604198666666667    0.5000000000000000 C
   0.4290834600000000    0.3937532000000000    0.5000000000000000 C
   0.4290834600000001    0.7270865333333334    0.5000000000000000 C
   0.7624167933333333    0.0604198666666667    0.5000000000000000 C
   0.7624167933333331    0.3937532000000000    0.5000000000000000 C
   0.7624167933333330    0.7270865333333334    0.5000000000000000 C
   0.1095750133333333    0.0727086533333333    0.5000000000000000 C
   0.1095750133333334    0.4060419866666667    0.5000000000000000 C
   0.1095750133333333    0.7393753200000001    0.5000000000000000 C
   0.4429083466666667    0.0727086533333333    0.5000000000000000 C
   0.4429083466666667    0.4060419866666667    0.5000000000000000 C
   0.4429083466666667    0.7393753200000001    0.5000000000000000 C
   0.7762416799999998    0.0727086533333333    0.5000000000000000 C
   0.7762416799999998    0.4060419866666667    0.5000000000000000 C
   0.7762416800000000    0.7393753200000001    0.5000000000000000 C
   0.1233998966666667    0.0849974400000000    0.5000000000000000 C
   0.1233998966666667    0.4183307733333334    0.5000000000000000 C
   0.1233998966666667    0.7516641066666667    0.5000000000000000 C
   0.4567332300000001    0.0849974400000000    0.5000000000000000 C
   0.4567332300000000    0.4183307733333334    0.5000000000000000 C
   0.4567332300000001    0.7516641066666667    0.5000000000000000 C
   0.7900665633333334    0.0849974400000000    0.5000000000000000 C
   0.7900665633333332    0.4183307733333334    0.5000000000000000 C
   0.7900665633333334    0.7516641066666667    0.5000000000000000 C
   0.1372247833333334    0.0972862266666667    0.5000000000000000 C
   0.1372247833333334    0.4306195600000000    0.5000000000000000 C
   0.1372247833333334    0.7639528933333333    0.5000000000000000 C
   0.4705581166666666    0.0972862266666667    0.5000000000000000 C
   0.4705581166666666    0.4306195600000000    0.5000000000000000 C
   0.4705581166666668    0.7639528933333333    0.5000000000000000 C
   0.8038914499999998    0.0972862266666667    0.5000000000000000 C
   0.8038914500000000    0.4306195600000000    0.5000000000000000 C
   0.8038914500000001    0.7639528933333333    0.5000000000000000 C
   0.1510496666666667    0.1095750133333333    0.5000000000000000 C
   0.1510496666666667    0.4429083466666667    0.5000000000000000 C
   0.1510496666666668    0.7762416800000000    0.5000000000000000 C
   0.4843829999999999    0.1095750133333333    0.5000000000000000 C
   0.4843830000000000    0.4429083466666667    0.5000000000000000 C
   0.4843830000000000    0.7762416800000000    0.5000000000000000 C
   0.8177163333333334    0.1095750133333333    0.5000000000000000 C
   0.8177163333333334    0.4429083466666667    0.5000000000000000 C
   0.8177163333333330    0.7762416800000000    0.5000000000000000 C
   0.1648745533333334    0.1218638000000000    0.5000000000000000 C
   0.1648745533333334    0.4551971333333334    0.5000000000000000 C
   0.1648745533333334    0.7885304666666667    0.5000000000000000 C
   0.4982078866666665    0.1218638000000000    0.5000000000000000 C
   0.4982078866666666    0.4551971333333334    0.5000000000000000 C
   0.4982078866666667    0.7885304666666667    0.5000000000000000 C
   0.8315412199999999    0.1218638000000000    0.5000000000000000 C
   0.8315412199999999    0.4551971333333334    0.5000000000000000 C
   0.8315412199999996    0.7885304666666667    0.5000000000000000 C
   0.1786994366666667    0.1341525866666667    0.5000000000000000 C
   0.1786994366666667    0.4674859199999999    0.5000000000000000 C
   0.1786994366666667    0.8008192533333335    0.5000000000000000 C
   0.5120327699999999    0.1341525866666667    0.5000000000000000 C
   0.5120327699999999    0.4674859199999999    0.5000000000000000 C
   0.5120327700000000    0.8008192533333335    0.5000000000000000 C
   0.8453661033333331    0.1341525866666667    0.5000000000000000 C
   0.8453661033333332    0.4674859199999999    0.5000000000000000 C
   0.8453661033333332    0.8008192533333335    0.5000000000000000 C
   0.1925243200000000    0.1464413733333333    0.5000000000000000 C
   0.1925243200000000    0.4797747066666667    0.5000000000000000 C
   0.1925243200000000    0.8131080399999999    0.5000000000000000 C
   0.5258576533333331    0.1464413733333333    0.5000000000000000 C
   0.5258576533333331    0.4797747066666667    0.5000000000000000 C
   0.5258576533333336    0.8131080399999999    0.5000000000000000 C
   0.8591909866666665    0.1464413733333333    0.5000000000000000 C
   0.8591909866666664    0.4797747066666667    0.5000000000000000 C
   0.8591909866666667    0.8131080399999999    0.5000000000000000 C
   0.2063492066666666    0.1587301600000000    0.5000000000000000 C
   0.2063492066666667    0.4920634933333334    0.5000000000000000 C
   0.2063492066666668    0.8253968266666666    0.5000000000000000 C
   0.5396825400000002    0.1587301600000000    0.5000000000000000 C
   0.5396825400000000    0.4920634933333334    0.5000000000000000 C
   0.5396825400000000    0.8253968266666666    0.5000000000000000 C
   0.8730158733333332    0.1587301600000000    0.5000000000000000 C
   0.8730158733333332    0.4920634933333334    0.5000000000000000 C
   0.8730158733333331    0.8253968266666666    0.5000000000000000 C
   0.2201740900000001    0.1710189466666666    0.5000000000000000 C
   0.2201740900000001    0.5043522800000000    0.5000000000000000 C
   0.2201740900000000    0.8376856133333334    0.5000000000000000 C
   0.5535074233333332    0.1710189466666666    0.5000000000000000 C
   0.5535074233333332    0.5043522800000000    0.5000000000000000 C
   0.5535074233333335    0.8376856133333334    0.5000000000000000 C
   0.8868407566666667    0.1710189466666666    0.5000000000000000 C
   0.8868407566666667    0.5043522800000000    0.5000000000000000 C
   0.8868407566666666    0.8376856133333334    0.5000000000000000 C
   0.2339989766666666    0.1833077333333333    0.5000000000000000 C
   0.2339989766666666    0.5166410666666666    0.5000000000000000 C
   0.2339989766666668    0.8499744000000001    0.5000000000000000 C
   0.5673323100000000    0.1833077333333333    0.5000000000000000 C
   0.5673323100000000    0.5166410666666666    0.5000000000000000 C
   0.5673323100000001    0.8499744000000001    0.5000000000000000 C
   0.9006656433333332    0.1833077333333333    0.5000000000000000 C
   0.9006656433333333    0.5166410666666666    0.5000000000000000 C
   0.9006656433333334    0.8499744000000001    0.5000000000000000 C
   0.2478238600000000    0.1955965166666666    0.5000000000000000 C
   0.2478238600000002    0.5289298500000000    0.5000000000000000 C
   0.2478238600000001    0.8622631833333333    0.5000000000000000 C
   0.5811571933333332    0.1955965166666666    0.5000000000000000 C
   0.5811571933333333    0.5289298500000000    0.5000000000000000 C
   0.5811571933333335    0.8622631833333333    0.5000000000000000 C
   0.9144905266666666    0.1955965166666666    0.5000000000000000 C
   0.9144905266666666    0.5289298500000000    0.5000000000000000 C
   0.9144905266666667    0.8622631833333333    0.5000000000000000 C
   0.2616487466666668    0.2078853033333333    0.5000000000000000 C
   0.2616487466666669    0.5412186366666666    0.5000000000000000 C
   0.2616487466666667    0.8745519700000001    0.5000000000000000 C
   0.5949820800000001    0.2078853033333333    0.5000000000000000 C
   0.5949820800000001    0.5412186366666666    0.5000000000000000 C
   0.5949820800000000    0.8745519700000001    0.5000000000000000 C
   0.9283154133333331    0.2078853033333333    0.5000000000000000 C
   0.9283154133333331    0.5412186366666666    0.5000000000000000 C
   0.9283154133333332    0.8745519700000001    0.5000000000000000 C
   0.2754736300000001    0.2201740900000000    0.5000000000000000 C
   0.2754736300000001    0.5535074233333332    0.5000000000000000 C
   0.2754736300000001    0.8868407566666666    0.5000000000000000 C
   0.6088069633333334    0.2201740900000000    0.5000000000000000 C
   0.6088069633333334    0.5535074233333332    0.5000000000000000 C
   0.6088069633333332    0.8868407566666666    0.5000000000000000 C
   0.9421402966666665    0.2201740900000000    0.5000000000000000 C
   0.9421402966666664    0.5535074233333332    0.5000000000000000 C
   0.9421402966666664    0.8868407566666666    0.5000000000000000 C
   0.2892985166666667    0.2324628766666667    0.5000000000000000 C
   0.2892985166666668    0.5657962099999999    0.5000000000000000 C
   0.2892985166666667    0.8991295433333334    0.5000000000000000 C
   0.6226318500000000    0.2324628766666667    0.5000000000000000 C
   0.6226318499999999    0.5657962099999999    0.5000000000000000 C
   0.6226318500000001    0.8991295433333334    0.5000000000000000 C
   0.9559651833333330    0.2324628766666667    0.5000000000000000 C
   0.9559651833333332    0.5657962099999999    0.5000000000000000 C
   0.9559651833333331    0.8991295433333334    0.5000000000000000 C
   0.3031234000000000    0.2447516633333334    0.5000000000000000 C
   0.3031234000000001    0.5780849966666667    0.5000000000000000 C
   0.3031233999999999    0.9114183300000001    0.5000000000000000 C
   0.6364567333333333    0.2447516633333334    0.5000000000000000 C
   0.6364567333333333    0.5780849966666667    0.5000000000000000 C
   0.6364567333333335    0.9114183300000001    0.5000000000000000 C
   0.9697900666666667    0.2447516633333334    0.5000000000000000 C
   0.9697900666666668    0.5780849966666667    0.5000000000000000 C
   0.9697900666666668    0.9114183300000001    0.5000000000000000 C
   0.3169482833333334    0.2570404500000000    0.5000000000000000 C
   0.3169482833333335    0.5903737833333333    0.5000000000000000 C
   0.3169482833333333    0.9237071166666667    0.5000000000000000 C
   0.6502816166666666    0.2570404500000000    0.5000000000000000 C
   0.6502816166666667    0.5903737833333333    0.5000000000000000 C
   0.6502816166666666    0.9237071166666667    0.5000000000000000 C
   0.9836149499999999    0.2570404500000000    0.5000000000000000 C
   0.9836149500000000    0.5903737833333333    0.5000000000000000 C
   0.9836149500000001    0.9237071166666667    0.5000000000000000 C
   0.3307731700000000    0.2693292366666667    0.5000000000000000 C
   0.3307731700000001    0.6026625700000000    0.5000000000000000 C
   0.3307731700000000    0.9359959033333333    0.5000000000000000 C
   0.6641065033333333    0.2693292366666667    0.5000000000000000 C
   0.6641065033333331    0.6026625700000000    0.5000000000000000 C
   0.6641065033333333    0.9359959033333333    0.5000000000000000 C
   0.9974398366666666    0.2693292366666667    0.5000000000000000 C
   0.9974398366666664    0.6026625700000000    0.5000000000000000 C
   0.9974398366666668    0.9359959033333333    0.5000000000000000 C
   0.0112647200000000    0.2816180233333334    0.5000000000000000 C
   0.0112647200000000    0.6149513566666667    0.5000000000000000 C
   0.0112647200000000    0.9482846900000002    0.5000000000000000 C
   0.3445980533333333    0.2816180233333334    0.5000000000000000 C
   0.3445980533333332    0.6149513566666667    0.5000000000000000 C
   0.3445980533333335    0.9482846900000002    0.5000000000000000 C
   0.6779313866666666    0.2816180233333334    0.5000000000000000 C
   0.6779313866666666    0.6149513566666667    0.5000000000000000 C
   0.6779313866666664    0.9482846900000002    0.5000000000000000 C
   0.0250896066666667    0.2939068100000000    0.5000000000000000 C
   0.0250896066666666    0.6272401433333333    0.5000000000000000 C
   0.0250896066666667    0.9605734766666667    0.5000000000000000 C
   0.3584229400000000    0.2939068100000000    0.5000000000000000 C
   0.3584229399999999    0.6272401433333333    0.5000000000000000 C
   0.3584229400000001    0.9605734766666667    0.5000000000000000 C
   0.6917562733333331    0.2939068100000000    0.5000000000000000 C
   0.6917562733333332    0.6272401433333333    0.5000000000000000 C
   0.6917562733333331    0.9605734766666667    0.5000000000000000 C
   0.0803891433333333    0.0097286233333333    0.5000000000000000 C
   0.0803891433333333    0.3430619566666667    0.5000000000000000 C
   0.0803891433333333    0.6763952900000000    0.5000000000000000 C
   0.4137224766666666    0.0097286233333333    0.5000000000000000 C
   0.4137224766666666    0.3430619566666667    0.5000000000000000 C
   0.4137224766666667    0.6763952900000000    0.5000000000000000 C
   0.7470558099999999    0.0097286233333333    0.5000000000000000 C
   0.7470558099999999    0.3430619566666667    0.5000000000000000 C
   0.7470558099999997    0.6763952900000000    0.5000000000000000 C
   0.0942140300000000    0.0220174100000000    0.5000000000000000 C
   0.0942140300000000    0.3553507433333333    0.5000000000000000 C
   0.0942140300000000    0.6886840766666668    0.5000000000000000 C
   0.4275473633333332    0.0220174100000000    0.5000000000000000 C
   0.4275473633333334    0.3553507433333333    0.5000000000000000 C
   0.4275473633333333    0.6886840766666668    0.5000000000000000 C
   0.7608806966666666    0.0220174100000000    0.5000000000000000 C
   0.7608806966666665    0.3553507433333333    0.5000000000000000 C
   0.7608806966666664    0.6886840766666668    0.5000000000000000 C
   0.1080389133333333    0.0343061966666667    0.5000000000000000 C
   0.1080389133333334    0.3676395300000000    0.5000000000000000 C
   0.1080389133333334    0.7009728633333333    0.5000000000000000 C
   0.4413722466666666    0.0343061966666667    0.5000000000000000 C
   0.4413722466666665    0.3676395300000000    0.5000000000000000 C
   0.4413722466666667    0.7009728633333333    0.5000000000000000 C
   0.7747055799999999    0.0343061966666667    0.5000000000000000 C
   0.7747055799999999    0.3676395300000000    0.5000000000000000 C
   0.7747055799999998    0.7009728633333333    0.5000000000000000 C
   0.1218638000000000    0.0465949833333333    0.5000000000000000 C
   0.1218638000000001    0.3799283166666666    0.5000000000000000 C
   0.1218638000000000    0.7132616500000001    0.5000000000000000 C
   0.4551971333333333    0.0465949833333333    0.5000000000000000 C
   0.4551971333333333    0.3799283166666666    0.5000000000000000 C
   0.4551971333333332    0.7132616500000001    0.5000000000000000 C
   0.7885304666666665    0.0465949833333333    0.5000000000000000 C
   0.7885304666666665    0.3799283166666666    0.5000000000000000 C
   0.7885304666666665    0.7132616500000001    0.5000000000000000 C
   0.1356886833333334    0.0588837700000000    0.5000000000000000 C
   0.1356886833333334    0.3922171033333334    0.5000000000000000 C
   0.1356886833333334    0.7255504366666667    0.5000000000000000 C
   0.4690220166666667    0.0588837700000000    0.5000000000000000 C
   0.4690220166666665    0.3922171033333334    0.5000000000000000 C
   0.4690220166666667    0.7255504366666667    0.5000000000000000 C
   0.8023553499999998    0.0588837700000000    0.5000000000000000 C
   0.8023553499999999    0.3922171033333334    0.5000000000000000 C
   0.8023553499999997    0.7255504366666667    0.5000000000000000 C
   0.1495135700000000    0.0711725566666667    0.5000000000000000 C
   0.1495135700000000    0.4045058900000001    0.5000000000000000 C
   0.1495135700000002    0.7378392233333334    0.5000000000000000 C
   0.4828469033333333    0.0711725566666667    0.5000000000000000 C
   0.4828469033333332    0.4045058900000001    0.5000000000000000 C
   0.4828469033333334    0.7378392233333334    0.5000000000000000 C
   0.8161802366666664    0.0711725566666667    0.5000000000000000 C
   0.8161802366666663    0.4045058900000001    0.5000000000000000 C
   0.8161802366666664    0.7378392233333334    0.5000000000000000 C
   0.1633384533333334    0.0834613400000000    0.5000000000000000 C
   0.1633384533333334    0.4167946733333334    0.5000000000000000 C
   0.1633384533333334    0.7501280066666668    0.5000000000000000 C
   0.4966717866666667    0.0834613400000000    0.5000000000000000 C
   0.4966717866666667    0.4167946733333334    0.5000000000000000 C
   0.4966717866666667    0.7501280066666668    0.5000000000000000 C
   0.8300051199999999    0.0834613400000000    0.5000000000000000 C
   0.8300051199999998    0.4167946733333334    0.5000000000000000 C
   0.8300051199999997    0.7501280066666668    0.5000000000000000 C
   0.1771633400000000    0.0957501266666667    0.5000000000000000 C
   0.1771633400000001    0.4290834600000000    0.5000000000000000 C
   0.1771633400000001    0.7624167933333333    0.5000000000000000 C
   0.5104966733333333    0.0957501266666667    0.5000000000000000 C
   0.5104966733333334    0.4290834600000000    0.5000000000000000 C
   0.5104966733333333    0.7624167933333333    0.5000000000000000 C
   0.8438300066666664    0.0957501266666667    0.5000000000000000 C
   0.8438300066666663    0.4290834600000000    0.5000000000000000 C
   0.8438300066666664    0.7624167933333333    0.5000000000000000 C
   0.1909882233333334    0.1080389133333333    0.5000000000000000 C
   0.1909882233333334    0.4413722466666667    0.5000000000000000 C
   0.1909882233333333    0.7747055800000002    0.5000000000000000 C
   0.5243215566666667    0.1080389133333333    0.5000000000000000 C
   0.5243215566666667    0.4413722466666667    0.5000000000000000 C
   0.5243215566666667    0.7747055800000002    0.5000000000000000 C
   0.8576548900000001    0.1080389133333333    0.5000000000000000 C
   0.8576548899999999    0.4413722466666667    0.5000000000000000 C
   0.8576548899999999    0.7747055800000002    0.5000000000000000 C
   0.2048131066666667    0.1203277000000000    0.5000000000000000 C
   0.2048131066666667    0.4536610333333334    0.5000000000000000 C
   0.2048131066666668    0.7869943666666667    0.5000000000000000 C
   0.5381464400000000    0.1203277000000000    0.5000000000000000 C
   0.5381464400000000    0.4536610333333334    0.5000000000000000 C
   0.5381464400000001    0.7869943666666667    0.5000000000000000 C
   0.8714797733333333    0.1203277000000000    0.5000000000000000 C
   0.8714797733333330    0.4536610333333334    0.5000000000000000 C
   0.8714797733333334    0.7869943666666667    0.5000000000000000 C
   0.2186379933333334    0.1326164866666666    0.5000000000000000 C
   0.2186379933333333    0.4659498200000000    0.5000000000000000 C
   0.2186379933333333    0.7992831533333333    0.5000000000000000 C
   0.5519713266666667    0.1326164866666666    0.5000000000000000 C
   0.5519713266666667    0.4659498200000000    0.5000000000000000 C
   0.5519713266666667    0.7992831533333333    0.5000000000000000 C
   0.8853046599999999    0.1326164866666666    0.5000000000000000 C
   0.8853046599999997    0.4659498200000000    0.5000000000000000 C
   0.8853046600000000    0.7992831533333333    0.5000000000000000 C
   0.2324628766666667    0.1449052733333333    0.5000000000000000 C
   0.2324628766666667    0.4782386066666666    0.5000000000000000 C
   0.2324628766666668    0.8115719400000000    0.5000000000000000 C
   0.5657962100000000    0.1449052733333333    0.5000000000000000 C
   0.5657962100000000    0.4782386066666666    0.5000000000000000 C
   0.5657962100000000    0.8115719400000000    0.5000000000000000 C
   0.8991295433333333    0.1449052733333333    0.5000000000000000 C
   0.8991295433333334    0.4782386066666666    0.5000000000000000 C
   0.8991295433333333    0.8115719400000000    0.5000000000000000 C
   0.2462877633333334    0.1571940600000000    0.5000000000000000 C
   0.2462877633333333    0.4905273933333333    0.5000000000000000 C
   0.2462877633333333    0.8238607266666667    0.5000000000000000 C
   0.5796210966666667    0.1571940600000000    0.5000000000000000 C
   0.5796210966666667    0.4905273933333333    0.5000000000000000 C
   0.5796210966666666    0.8238607266666667    0.5000000000000000 C
   0.9129544299999999    0.1571940600000000    0.5000000000000000 C
   0.9129544300000001    0.4905273933333333    0.5000000000000000 C
   0.9129544299999997    0.8238607266666667    0.5000000000000000 C
   0.2601126466666667    0.1694828466666667    0.5000000000000000 C
   0.2601126466666666    0.5028161800000001    0.5000000000000000 C
   0.2601126466666666    0.8361495133333333    0.5000000000000000 C
   0.5934459799999999    0.1694828466666667    0.5000000000000000 C
   0.5934459799999998    0.5028161800000001    0.5000000000000000 C
   0.5934459800000002    0.8361495133333333    0.5000000000000000 C
   0.9267793133333332    0.1694828466666667    0.5000000000000000 C
   0.9267793133333332    0.5028161800000001    0.5000000000000000 C
   0.9267793133333332    0.8361495133333333    0.5000000000000000 C
   0.2739375333333334    0.1817716333333333    0.5000000000000000 C
   0.2739375333333334    0.5151049666666667    0.5000000000000000 C
   0.2739375333333334    0.8484383000000000    0.5000000000000000 C
   0.6072708666666666    0.1817716333333333    0.5000000000000000 C
   0.6072708666666665    0.5151049666666667    0.5000000000000000 C
   0.6072708666666670    0.8484383000000000    0.5000000000000000 C
   0.9406041999999999    0.1817716333333333    0.5000000000000000 C
   0.9406041999999999    0.5151049666666667    0.5000000000000000 C
   0.9406042000000000    0.8484383000000000    0.5000000000000000 C
   0.2877624166666667    0.1940604200000000    0.5000000000000000 C
   0.2877624166666667    0.5273937533333333    0.5000000000000000 C
   0.2877624166666668    0.8607270866666668    0.5000000000000000 C
   0.6210957499999999    0.1940604200000000    0.5000000000000000 C
   0.6210957499999998    0.5273937533333333    0.5000000000000000 C
   0.6210957499999999    0.8607270866666668    0.5000000000000000 C
   0.9544290833333333    0.1940604200000000    0.5000000000000000 C
   0.9544290833333332    0.5273937533333333    0.5000000000000000 C
   0.9544290833333330    0.8607270866666668    0.5000000000000000 C
   0.3015873000000001    0.2063492066666666    0.5000000000000000 C
   0.3015873000000002    0.5396825399999999    0.5000000000000000 C
   0.3015873000000001    0.8730158733333333    0.5000000000000000 C
   0.6349206333333335    0.2063492066666666    0.5000000000000000 C
   0.6349206333333334    0.5396825399999999    0.5000000000000000 C
   0.6349206333333337    0.8730158733333333    0.5000000000000000 C
   0.9682539666666666    0.2063492066666666    0.5000000000000000 C
   0.9682539666666666    0.5396825399999999    0.5000000000000000 C
   0.9682539666666665    0.8730158733333333    0.5000000000000000 C
   0.3154121866666668    0.2186379933333333    0.5000000000000000 C
   0.3154121866666668    0.5519713266666666    0.5000000000000000 C
   0.3154121866666667    0.8853046600000001    0.5000000000000000 C
   0.6487455200000001    0.2186379933333333    0.5000000000000000 C
   0.6487455200000000    0.5519713266666666    0.5000000000000000 C
   0.6487455200000003    0.8853046600000001    0.5000000000000000 C
   0.9820788533333332    0.2186379933333333    0.5000000000000000 C
   0.9820788533333333    0.5519713266666666    0.5000000000000000 C
   0.9820788533333333    0.8853046600000001    0.5000000000000000 C
   0.3292370700000000    0.2309267800000000    0.5000000000000000 C
   0.3292370700000001    0.5642601133333334    0.5000000000000000 C
   0.3292370700000001    0.8975934466666667    0.5000000000000000 C
   0.6625704033333334    0.2309267800000000    0.5000000000000000 C
   0.6625704033333333    0.5642601133333334    0.5000000000000000 C
   0.6625704033333333    0.8975934466666667    0.5000000000000000 C
   0.9959037366666664    0.2309267800000000    0.5000000000000000 C
   0.9959037366666665    0.5642601133333334    0.5000000000000000 C
   0.9959037366666665    0.8975934466666667    0.5000000000000000 C
   0.0097286233333334    0.2432155666666667    0.5000000000000000 C
   0.0097286233333334    0.5765489000000000    0.5000000000000000 C
   0.0097286233333334    0.9098822333333334    0.5000000000000000 C
   0.3430619566666666    0.2432155666666667    0.5000000000000000 C
   0.3430619566666667    0.5765489000000000    0.5000000000000000 C
   0.3430619566666667    0.9098822333333334    0.5000000000000000 C
   0.6763952899999999    0.2432155666666667    0.5000000000000000 C
   0.6763952899999999    0.5765489000000000    0.5000000000000000 C
   0.6763952899999998    0.9098822333333334    0.5000000000000000 C
   0.0235535066666667    0.2555043533333333    0.5000000000000000 C
   0.0235535066666666    0.5888376866666667    0.5000000000000000 C
   0.0235535066666667    0.9221710200000000    0.5000000000000000 C
   0.3568868399999999    0.2555043533333333    0.5000000000000000 C
   0.3568868400000000    0.5888376866666667    0.5000000000000000 C
   0.3568868400000000    0.9221710200000000    0.5000000000000000 C
   0.6902201733333332    0.2555043533333333    0.5000000000000000 C
   0.6902201733333332    0.5888376866666667    0.5000000000000000 C
   0.6902201733333331    0.9221710200000000    0.5000000000000000 C
   0.1203277000000000    0.0081925233333333    0.5000000000000000 C
   0.1203277000000000    0.3415258566666667    0.5000000000000000 C
   0.1203277000000000    0.6748591900000001    0.5000000000000000 C
   0.4536610333333334    0.0081925233333333    0.5000000000000000 C
   0.4536610333333332    0.3415258566666667    0.5000000000000000 C
   0.4536610333333334    0.6748591900000001    0.5000000000000000 C
   0.7869943666666666    0.0081925233333333    0.5000000000000000 C
   0.7869943666666666    0.3415258566666667    0.5000000000000000 C
   0.7869943666666667    0.6748591900000001    0.5000000000000000 C
   0.1341525866666667    0.0204813100000000    0.5000000000000000 C
   0.1341525866666667    0.3538146433333334    0.5000000000000000 C
   0.1341525866666666    0.6871479766666668    0.5000000000000000 C
   0.4674859199999999    0.0204813100000000    0.5000000000000000 C
   0.4674859200000000    0.3538146433333334    0.5000000000000000 C
   0.4674859200000000    0.6871479766666668    0.5000000000000000 C
   0.8008192533333331    0.0204813100000000    0.5000000000000000 C
   0.8008192533333334    0.3538146433333334    0.5000000000000000 C
   0.8008192533333330    0.6871479766666668    0.5000000000000000 C
   0.1479774700000000    0.0327700966666667    0.5000000000000000 C
   0.1479774700000001    0.3661034300000000    0.5000000000000000 C
   0.1479774700000001    0.6994367633333333    0.5000000000000000 C
   0.4813108033333334    0.0327700966666667    0.5000000000000000 C
   0.4813108033333334    0.3661034300000000    0.5000000000000000 C
   0.4813108033333335    0.6994367633333333    0.5000000000000000 C
   0.8146441366666667    0.0327700966666667    0.5000000000000000 C
   0.8146441366666666    0.3661034300000000    0.5000000000000000 C
   0.8146441366666665    0.6994367633333333    0.5000000000000000 C
   0.1618023566666666    0.0450588833333333    0.5000000000000000 C
   0.1618023566666667    0.3783922166666666    0.5000000000000000 C
   0.1618023566666666    0.7117255499999999    0.5000000000000000 C
   0.4951356900000000    0.0450588833333333    0.5000000000000000 C
   0.4951356900000001    0.3783922166666666    0.5000000000000000 C
   0.4951356900000001    0.7117255499999999    0.5000000000000000 C
   0.8284690233333333    0.0450588833333333    0.5000000000000000 C
   0.8284690233333334    0.3783922166666666    0.5000000000000000 C
   0.8284690233333333    0.7117255499999999    0.5000000000000000 C
   0.1756272400000000    0.0573476700000000    0.5000000000000000 C
   0.1756272400000000    0.3906810033333333    0.5000000000000000 C
   0.1756272400000000    0.7240143366666667    0.5000000000000000 C
   0.5089605733333333    0.0573476700000000    0.5000000000000000 C
   0.5089605733333333    0.3906810033333333    0.5000000000000000 C
   0.5089605733333333    0.7240143366666667    0.5000000000000000 C
   0.8422939066666665    0.0573476700000000    0.5000000000000000 C
   0.8422939066666664    0.3906810033333333    0.5000000000000000 C
   0.8422939066666665    0.7240143366666667    0.5000000000000000 C
   0.1894521233333333    0.0696364566666667    0.5000000000000000 C
   0.1894521233333334    0.4029697899999999    0.5000000000000000 C
   0.1894521233333333    0.7363031233333334    0.5000000000000000 C
   0.5227854566666666    0.0696364566666667    0.5000000000000000 C
   0.5227854566666666    0.4029697899999999    0.5000000000000000 C
   0.5227854566666666    0.7363031233333334    0.5000000000000000 C
   0.8561187899999999    0.0696364566666667    0.5000000000000000 C
   0.8561187900000001    0.4029697899999999    0.5000000000000000 C
   0.8561187899999997    0.7363031233333334    0.5000000000000000 C
   0.2032770100000000    0.0819252433333333    0.5000000000000000 C
   0.2032770100000000    0.4152585766666667    0.5000000000000000 C
   0.2032770100000000    0.7485919100000000    0.5000000000000000 C
   0.5366103433333334    0.0819252433333333    0.5000000000000000 C
   0.5366103433333334    0.4152585766666667    0.5000000000000000 C
   0.5366103433333334    0.7485919100000000    0.5000000000000000 C
   0.8699436766666666    0.0819252433333333    0.5000000000000000 C
   0.8699436766666668    0.4152585766666667    0.5000000000000000 C
   0.8699436766666664    0.7485919100000000    0.5000000000000000 C
   0.2171018933333333    0.0942140300000000    0.5000000000000000 C
   0.2171018933333333    0.4275473633333334    0.5000000000000000 C
   0.2171018933333333    0.7608806966666666    0.5000000000000000 C
   0.5504352266666666    0.0942140300000000    0.5000000000000000 C
   0.5504352266666666    0.4275473633333334    0.5000000000000000 C
   0.5504352266666669    0.7608806966666666    0.5000000000000000 C
   0.8837685599999998    0.0942140300000000    0.5000000000000000 C
   0.8837685599999998    0.4275473633333334    0.5000000000000000 C
   0.8837685599999999    0.7608806966666666    0.5000000000000000 C
   0.2309267800000000    0.1065028166666667    0.5000000000000000 C
   0.2309267800000001    0.4398361500000000    0.5000000000000000 C
   0.2309267800000000    0.7731694833333334    0.5000000000000000 C
   0.5642601133333334    0.1065028166666667    0.5000000000000000 C
   0.5642601133333334    0.4398361500000000    0.5000000000000000 C
   0.5642601133333334    0.7731694833333334    0.5000000000000000 C
   0.8975934466666665    0.1065028166666667    0.5000000000000000 C
   0.8975934466666665    0.4398361500000000    0.5000000000000000 C
   0.8975934466666663    0.7731694833333334    0.5000000000000000 C
   0.2447516633333333    0.1187916033333333    0.5000000000000000 C
   0.2447516633333334    0.4521249366666667    0.5000000000000000 C
   0.2447516633333335    0.7854582700000000    0.5000000000000000 C
   0.5780849966666665    0.1187916033333333    0.5000000000000000 C
   0.5780849966666665    0.4521249366666667    0.5000000000000000 C
   0.5780849966666668    0.7854582700000000    0.5000000000000000 C
   0.9114183299999999    0.1187916033333333    0.5000000000000000 C
   0.9114183300000002    0.4521249366666667    0.5000000000000000 C
   0.9114183299999999    0.7854582700000000    0.5000000000000000 C
   0.2585765500000001    0.1310803900000000    0.5000000000000000 C
   0.2585765500000001    0.4644137233333334    0.5000000000000000 C
   0.2585765499999998    0.7977470566666668    0.5000000000000000 C
   0.5919098833333335    0.1310803900000000    0.5000000000000000 C
   0.5919098833333334    0.4644137233333334    0.5000000000000000 C
   0.5919098833333335    0.7977470566666668    0.5000000000000000 C
   0.9252432166666668    0.1310803900000000    0.5000000000000000 C
   0.9252432166666668    0.4644137233333334    0.5000000000000000 C
   0.9252432166666664    0.7977470566666668    0.5000000000000000 C
   0.2724014333333334    0.1433691766666667    0.5000000000000000 C
   0.2724014333333334    0.4767025100000000    0.5000000000000000 C
   0.2724014333333334    0.8100358433333333    0.5000000000000000 C
   0.6057347666666667    0.1433691766666667    0.5000000000000000 C
   0.6057347666666667    0.4767025100000000    0.5000000000000000 C
   0.6057347666666666    0.8100358433333333    0.5000000000000000 C
   0.9390681000000000    0.1433691766666667    0.5000000000000000 C
   0.9390680999999999    0.4767025100000000    0.5000000000000000 C
   0.9390680999999996    0.8100358433333333    0.5000000000000000 C
   0.2862263200000000    0.1556579633333333    0.5000000000000000 C
   0.2862263200000001    0.4889912966666667    0.5000000000000000 C
   0.2862263200000001    0.8223246299999999    0.5000000000000000 C
   0.6195596533333334    0.1556579633333333    0.5000000000000000 C
   0.6195596533333334    0.4889912966666667    0.5000000000000000 C
   0.6195596533333335    0.8223246299999999    0.5000000000000000 C
   0.9528929866666667    0.1556579633333333    0.5000000000000000 C
   0.9528929866666667    0.4889912966666667    0.5000000000000000 C
   0.9528929866666666    0.8223246299999999    0.5000000000000000 C
   0.3000512033333333    0.1679467500000000    0.5000000000000000 C
   0.3000512033333335    0.5012800833333333    0.5000000000000000 C
   0.3000512033333334    0.8346134166666667    0.5000000000000000 C
   0.6333845366666666    0.1679467500000000    0.5000000000000000 C
   0.6333845366666666    0.5012800833333333    0.5000000000000000 C
   0.6333845366666671    0.8346134166666667    0.5000000000000000 C
   0.9667178700000001    0.1679467500000000    0.5000000000000000 C
   0.9667178700000000    0.5012800833333333    0.5000000000000000 C
   0.9667178700000001    0.8346134166666667    0.5000000000000000 C
   0.3138760866666668    0.1802355366666666    0.5000000000000000 C
   0.3138760866666666    0.5135688700000000    0.5000000000000000 C
   0.3138760866666666    0.8469022033333334    0.5000000000000000 C
   0.6472094199999999    0.1802355366666666    0.5000000000000000 C
   0.6472094200000001    0.5135688700000000    0.5000000000000000 C
   0.6472094200000003    0.8469022033333334    0.5000000000000000 C
   0.9805427533333334    0.1802355366666666    0.5000000000000000 C
   0.9805427533333332    0.5135688700000000    0.5000000000000000 C
   0.9805427533333333    0.8469022033333334    0.5000000000000000 C
   0.3277009733333334    0.1925243200000000    0.5000000000000000 C
   0.3277009733333334    0.5258576533333333    0.5000000000000000 C
   0.3277009733333332    0.8591909866666668    0.5000000000000000 C
   0.6610343066666668    0.1925243200000000    0.5000000000000000 C
   0.6610343066666667    0.5258576533333333    0.5000000000000000 C
   0.6610343066666670    0.8591909866666668    0.5000000000000000 C
   0.9943676400000001    0.1925243200000000    0.5000000000000000 C
   0.9943676399999999    0.5258576533333333    0.5000000000000000 C
   0.9943676400000000    0.8591909866666668    0.5000000000000000 C
   0.0081925233333333    0.2048131066666667    0.5000000000000000 C
   0.0081925233333333    0.5381464400000000    0.5000000000000000 C
   0.0081925233333335    0.8714797733333333    0.5000000000000000 C
   0.3415258566666666    0.2048131066666667    0.5000000000000000 C
   0.3415258566666666    0.5381464400000000    0.5000000000000000 C
   0.3415258566666668    0.8714797733333333    0.5000000000000000 C
   0.6748591899999999    0.2048131066666667    0.5000000000000000 C
   0.6748591899999999    0.5381464400000000    0.5000000000000000 C
   0.6748591900000001    0.8714797733333333    0.5000000000000000 C
   0.0220174100000000    0.2171018933333334    0.5000000000000000 C
   0.0220174100000000    0.5504352266666667    0.5000000000000000 C
   0.0220174100000001    0.8837685600000001    0.5000000000000000 C
   0.3553507433333333    0.2171018933333334    0.5000000000000000 C
   0.3553507433333332    0.5504352266666667    0.5000000000000000 C
   0.3553507433333333    0.8837685600000001    0.5000000000000000 C
   0.6886840766666666    0.2171018933333334    0.5000000000000000 C
   0.6886840766666666    0.5504352266666667    0.5000000000000000 C
   0.6886840766666666    0.8837685600000001    0.5000000000000000 C
   0.1602662566666667    0.0066564266666667    0.5000000000000000 C
   0.1602662566666667    0.3399897600000000    0.5000000000000000 C
   0.1602662566666667    0.6733230933333333    0.5000000000000000 C
   0.4935995899999999    0.0066564266666667    0.5000000000000000 C
   0.4935995899999998    0.3399897600000000    0.5000000000000000 C
   0.4935995900000000    0.6733230933333333    0.5000000000000000 C
   0.8269329233333332    0.0066564266666667    0.5000000000000000 C
   0.8269329233333333    0.3399897600000000    0.5000000000000000 C
   0.8269329233333331    0.6733230933333333    0.5000000000000000 C
   0.1740911433333333    0.0189452133333333    0.5000000000000000 C
   0.1740911433333334    0.3522785466666666    0.5000000000000000 C
   0.1740911433333334    0.6856118800000001    0.5000000000000000 C
   0.5074244766666665    0.0189452133333333    0.5000000000000000 C
   0.5074244766666666    0.3522785466666666    0.5000000000000000 C
   0.5074244766666667    0.6856118800000001    0.5000000000000000 C
   0.8407578099999998    0.0189452133333333    0.5000000000000000 C
   0.8407578099999999    0.3522785466666666    0.5000000000000000 C
   0.8407578100000000    0.6856118800000001    0.5000000000000000 C
   0.1879160266666667    0.0312340000000000    0.5000000000000000 C
   0.1879160266666666    0.3645673333333333    0.5000000000000000 C
   0.1879160266666667    0.6979006666666666    0.5000000000000000 C
   0.5212493600000000    0.0312340000000000    0.5000000000000000 C
   0.5212493599999999    0.3645673333333333    0.5000000000000000 C
   0.5212493600000000    0.6979006666666666    0.5000000000000000 C
   0.8545826933333334    0.0312340000000000    0.5000000000000000 C
   0.8545826933333333    0.3645673333333333    0.5000000000000000 C
   0.8545826933333333    0.6979006666666666    0.5000000000000000 C
   0.2017409100000001    0.0435227866666667    0.5000000000000000 C
   0.2017409100000000    0.3768561200000000    0.5000000000000000 C
   0.2017409100000000    0.7101894533333334    0.5000000000000000 C
   0.5350742433333333    0.0435227866666667    0.5000000000000000 C
   0.5350742433333333    0.3768561200000000    0.5000000000000000 C
   0.5350742433333335    0.7101894533333334    0.5000000000000000 C
   0.8684075766666666    0.0435227866666667    0.5000000000000000 C
   0.8684075766666667    0.3768561200000000    0.5000000000000000 C
   0.8684075766666666    0.7101894533333334    0.5000000000000000 C
   0.2155657966666667    0.0558115733333333    0.5000000000000000 C
   0.2155657966666666    0.3891449066666667    0.5000000000000000 C
   0.2155657966666667    0.7224782400000000    0.5000000000000000 C
   0.5488991300000001    0.0558115733333333    0.5000000000000000 C
   0.5488991300000000    0.3891449066666667    0.5000000000000000 C
   0.5488991300000000    0.7224782400000000    0.5000000000000000 C
   0.8822324633333334    0.0558115733333333    0.5000000000000000 C
   0.8822324633333334    0.3891449066666667    0.5000000000000000 C
   0.8822324633333334    0.7224782400000000    0.5000000000000000 C
   0.2293906800000000    0.0681003600000000    0.5000000000000000 C
   0.2293906800000000    0.4014336933333333    0.5000000000000000 C
   0.2293906800000000    0.7347670266666667    0.5000000000000000 C
   0.5627240133333333    0.0681003600000000    0.5000000000000000 C
   0.5627240133333332    0.4014336933333333    0.5000000000000000 C
   0.5627240133333334    0.7347670266666667    0.5000000000000000 C
   0.8960573466666666    0.0681003600000000    0.5000000000000000 C
   0.8960573466666666    0.4014336933333333    0.5000000000000000 C
   0.8960573466666667    0.7347670266666667    0.5000000000000000 C
   0.2432155666666667    0.0803891433333333    0.5000000000000000 C
   0.2432155666666667    0.4137224766666667    0.5000000000000000 C
   0.2432155666666666    0.7470558100000001    0.5000000000000000 C
   0.5765489000000000    0.0803891433333333    0.5000000000000000 C
   0.5765489000000000    0.4137224766666667    0.5000000000000000 C
   0.5765489000000001    0.7470558100000001    0.5000000000000000 C
   0.9098822333333334    0.0803891433333333    0.5000000000000000 C
   0.9098822333333333    0.4137224766666667    0.5000000000000000 C
   0.9098822333333334    0.7470558100000001    0.5000000000000000 C
   0.2570404500000000    0.0926779300000000    0.5000000000000000 C
   0.2570404500000000    0.4260112633333333    0.5000000000000000 C
   0.2570404500000001    0.7593445966666666    0.5000000000000000 C
   0.5903737833333333    0.0926779300000000    0.5000000000000000 C
   0.5903737833333333    0.4260112633333333    0.5000000000000000 C
   0.5903737833333335    0.7593445966666666    0.5000000000000000 C
   0.9237071166666666    0.0926779300000000    0.5000000000000000 C
   0.9237071166666666    0.4260112633333333    0.5000000000000000 C
   0.9237071166666667    0.7593445966666666    0.5000000000000000 C
   0.2708653366666667    0.1049667166666667    0.5000000000000000 C
   0.2708653366666667    0.4383000500000001    0.5000000000000000 C
   0.2708653366666667    0.7716333833333334    0.5000000000000000 C
   0.6041986700000000    0.1049667166666667    0.5000000000000000 C
   0.6041986699999999    0.4383000500000001    0.5000000000000000 C
   0.6041986700000002    0.7716333833333334    0.5000000000000000 C
   0.9375320033333333    0.1049667166666667    0.5000000000000000 C
   0.9375320033333334    0.4383000500000001    0.5000000000000000 C
   0.9375320033333333    0.7716333833333334    0.5000000000000000 C
   0.2846902200000000    0.1172555033333333    0.5000000000000000 C
   0.2846902200000000    0.4505888366666668    0.5000000000000000 C
   0.2846902200000000    0.7839221700000000    0.5000000000000000 C
   0.6180235533333333    0.1172555033333333    0.5000000000000000 C
   0.6180235533333333    0.4505888366666668    0.5000000000000000 C
   0.6180235533333336    0.7839221700000000    0.5000000000000000 C
   0.9513568866666666    0.1172555033333333    0.5000000000000000 C
   0.9513568866666666    0.4505888366666668    0.5000000000000000 C
   0.9513568866666666    0.7839221700000000    0.5000000000000000 C
   0.2985151033333334    0.1295442900000000    0.5000000000000000 C
   0.2985151033333333    0.4628776233333333    0.5000000000000000 C
   0.2985151033333334    0.7962109566666666    0.5000000000000000 C
   0.6318484366666666    0.1295442900000000    0.5000000000000000 C
   0.6318484366666667    0.4628776233333333    0.5000000000000000 C
   0.6318484366666668    0.7962109566666666    0.5000000000000000 C
   0.9651817699999998    0.1295442900000000    0.5000000000000000 C
   0.9651817700000002    0.4628776233333333    0.5000000000000000 C
   0.9651817700000000    0.7962109566666666    0.5000000000000000 C
   0.3123399900000002    0.1418330766666667    0.5000000000000000 C
   0.3123399900000002    0.4751664100000000    0.5000000000000000 C
   0.3123399900000002    0.8084997433333333    0.5000000000000000 C
   0.6456733233333333    0.1418330766666667    0.5000000000000000 C
   0.6456733233333334    0.4751664100000000    0.5000000000000000 C
   0.6456733233333335    0.8084997433333333    0.5000000000000000 C
   0.9790066566666668    0.1418330766666667    0.5000000000000000 C
   0.9790066566666666    0.4751664100000000    0.5000000000000000 C
   0.9790066566666670    0.8084997433333333    0.5000000000000000 C
   0.3261648733333333    0.1541218633333333    0.5000000000000000 C
   0.3261648733333333    0.4874551966666666    0.5000000000000000 C
   0.3261648733333334    0.8207885300000002    0.5000000000000000 C
   0.6594982066666666    0.1541218633333333    0.5000000000000000 C
   0.6594982066666667    0.4874551966666666    0.5000000000000000 C
   0.6594982066666666    0.8207885300000002    0.5000000000000000 C
   0.9928315400000001    0.1541218633333333    0.5000000000000000 C
   0.9928315399999998    0.4874551966666666    0.5000000000000000 C
   0.9928315400000001    0.8207885300000002    0.5000000000000000 C
   0.0066564266666667    0.1664106500000000    0.5000000000000000 C
   0.0066564266666667    0.4997439833333333    0.5000000000000000 C
   0.0066564266666668    0.8330773166666666    0.5000000000000000 C
   0.3399897600000000    0.1664106500000000    0.5000000000000000 C
   0.3399897599999999    0.4997439833333333    0.5000000000000000 C
   0.3399897600000002    0.8330773166666666    0.5000000000000000 C
   0.6733230933333332    0.1664106500000000    0.5000000000000000 C
   0.6733230933333332    0.4997439833333333    0.5000000000000000 C
   0.6733230933333334    0.8330773166666666    0.5000000000000000 C
   0.0204813100000000    0.1786994366666667    0.5000000000000000 C
   0.0204813100000000    0.5120327700000000    0.5000000000000000 C
   0.0204813100000001    0.8453661033333333    0.5000000000000000 C
   0.3538146433333332    0.1786994366666667    0.5000000000000000 C
   0.3538146433333332    0.5120327700000000    0.5000000000000000 C
   0.3538146433333335    0.8453661033333333    0.5000000000000000 C
   0.6871479766666666    0.1786994366666667    0.5000000000000000 C
   0.6871479766666666    0.5120327700000000    0.5000000000000000 C
   0.6871479766666666    0.8453661033333333    0.5000000000000000 C
   0.2002048133333333    0.0051203266666667    0.5000000000000000 C
   0.2002048133333334    0.3384536600000000    0.5000000000000000 C
   0.2002048133333333    0.6717869933333334    0.5000000000000000 C
   0.5335381466666667    0.0051203266666667    0.5000000000000000 C
   0.5335381466666667    0.3384536600000000    0.5000000000000000 C
   0.5335381466666668    0.6717869933333334    0.5000000000000000 C
   0.8668714799999999    0.0051203266666667    0.5000000000000000 C
   0.8668714799999998    0.3384536600000000    0.5000000000000000 C
   0.8668714799999997    0.6717869933333334    0.5000000000000000 C
   0.2140296966666667    0.0174091133333333    0.5000000000000000 C
   0.2140296966666667    0.3507424466666667    0.5000000000000000 C
   0.2140296966666666    0.6840757800000001    0.5000000000000000 C
   0.5473630300000000    0.0174091133333333    0.5000000000000000 C
   0.5473630300000000    0.3507424466666667    0.5000000000000000 C
   0.5473630300000000    0.6840757800000001    0.5000000000000000 C
   0.8806963633333332    0.0174091133333333    0.5000000000000000 C
   0.8806963633333333    0.3507424466666667    0.5000000000000000 C
   0.8806963633333331    0.6840757800000001    0.5000000000000000 C
   0.2278545833333334    0.0296979000000000    0.5000000000000000 C
   0.2278545833333333    0.3630312333333334    0.5000000000000000 C
   0.2278545833333334    0.6963645666666666    0.5000000000000000 C
   0.5611879166666667    0.0296979000000000    0.5000000000000000 C
   0.5611879166666667    0.3630312333333334    0.5000000000000000 C
   0.5611879166666669    0.6963645666666666    0.5000000000000000 C
   0.8945212499999999    0.0296979000000000    0.5000000000000000 C
   0.8945212499999999    0.3630312333333334    0.5000000000000000 C
   0.8945212499999999    0.6963645666666666    0.5000000000000000 C
   0.2416794666666667    0.0419866866666667    0.5000000000000000 C
   0.2416794666666666    0.3753200200000000    0.5000000000000000 C
   0.2416794666666667    0.7086533533333332    0.5000000000000000 C
   0.5750128000000000    0.0419866866666667    0.5000000000000000 C
   0.5750128000000001    0.3753200200000000    0.5000000000000000 C
   0.5750128000000000    0.7086533533333332    0.5000000000000000 C
   0.9083461333333330    0.0419866866666667    0.5000000000000000 C
   0.9083461333333332    0.3753200200000000    0.5000000000000000 C
   0.9083461333333331    0.7086533533333332    0.5000000000000000 C
   0.2555043533333333    0.0542754733333333    0.5000000000000000 C
   0.2555043533333334    0.3876088066666666    0.5000000000000000 C
   0.2555043533333333    0.7209421400000000    0.5000000000000000 C
   0.5888376866666668    0.0542754733333333    0.5000000000000000 C
   0.5888376866666667    0.3876088066666666    0.5000000000000000 C
   0.5888376866666667    0.7209421400000000    0.5000000000000000 C
   0.9221710199999998    0.0542754733333333    0.5000000000000000 C
   0.9221710199999998    0.3876088066666666    0.5000000000000000 C
   0.9221710200000000    0.7209421400000000    0.5000000000000000 C
   0.2693292366666667    0.0665642600000000    0.5000000000000000 C
   0.2693292366666667    0.3998975933333333    0.5000000000000000 C
   0.2693292366666666    0.7332309266666668    0.5000000000000000 C
   0.6026625699999999    0.0665642600000000    0.5000000000000000 C
   0.6026625699999999    0.3998975933333333    0.5000000000000000 C
   0.6026625700000001    0.7332309266666668    0.5000000000000000 C
   0.9359959033333332    0.0665642600000000    0.5000000000000000 C
   0.9359959033333332    0.3998975933333333    0.5000000000000000 C
   0.9359959033333332    0.7332309266666668    0.5000000000000000 C
   0.2831541233333334    0.0788530466666667    0.5000000000000000 C
   0.2831541233333334    0.4121863800000000    0.5000000000000000 C
   0.2831541233333333    0.7455197133333333    0.5000000000000000 C
   0.6164874566666668    0.0788530466666667    0.5000000000000000 C
   0.6164874566666668    0.4121863800000000    0.5000000000000000 C
   0.6164874566666668    0.7455197133333333    0.5000000000000000 C
   0.9498207900000001    0.0788530466666667    0.5000000000000000 C
   0.9498207900000000    0.4121863800000000    0.5000000000000000 C
   0.9498207899999999    0.7455197133333333    0.5000000000000000 C
   0.2969790066666667    0.0911418333333333    0.5000000000000000 C
   0.2969790066666667    0.4244751666666667    0.5000000000000000 C
   0.2969790066666667    0.7578084999999999    0.5000000000000000 C
   0.6303123399999999    0.0911418333333333    0.5000000000000000 C
   0.6303123400000000    0.4244751666666667    0.5000000000000000 C
   0.6303123399999999    0.7578084999999999    0.5000000000000000 C
   0.9636456733333332    0.0911418333333333    0.5000000000000000 C
   0.9636456733333331    0.4244751666666667    0.5000000000000000 C
   0.9636456733333334    0.7578084999999999    0.5000000000000000 C
   0.3108038900000000    0.1034306200000000    0.5000000000000000 C
   0.3108038900000002    0.4367639533333333    0.5000000000000000 C
   0.3108038900000001    0.7700972866666667    0.5000000000000000 C
   0.6441372233333333    0.1034306200000000    0.5000000000000000 C
   0.6441372233333335    0.4367639533333333    0.5000000000000000 C
   0.6441372233333336    0.7700972866666667    0.5000000000000000 C
   0.9774705566666667    0.1034306200000000    0.5000000000000000 C
   0.9774705566666668    0.4367639533333333    0.5000000000000000 C
   0.9774705566666668    0.7700972866666667    0.5000000000000000 C
   0.3246287766666667    0.1157194066666667    0.5000000000000000 C
   0.3246287766666667    0.4490527400000000    0.5000000000000000 C
   0.3246287766666667    0.7823860733333333    0.5000000000000000 C
   0.6579621100000000    0.1157194066666667    0.5000000000000000 C
   0.6579621100000000    0.4490527400000000    0.5000000000000000 C
   0.6579621099999999    0.7823860733333333    0.5000000000000000 C
   0.9912954433333333    0.1157194066666667    0.5000000000000000 C
   0.9912954433333332    0.4490527400000000    0.5000000000000000 C
   0.9912954433333332    0.7823860733333333    0.5000000000000000 C
   0.0051203266666667    0.1280081933333333    0.5000000000000000 C
   0.0051203266666668    0.4613415266666666    0.5000000000000000 C
   0.0051203266666667    0.7946748600000000    0.5000000000000000 C
   0.3384536600000000    0.1280081933333333    0.5000000000000000 C
   0.3384536600000000    0.4613415266666666    0.5000000000000000 C
   0.3384536600000000    0.7946748600000000    0.5000000000000000 C
   0.6717869933333332    0.1280081933333333    0.5000000000000000 C
   0.6717869933333334    0.4613415266666666    0.5000000000000000 C
   0.6717869933333332    0.7946748600000000    0.5000000000000000 C
   0.0189452133333334    0.1402969800000000    0.5000000000000000 C
   0.0189452133333334    0.4736303133333333    0.5000000000000000 C
   0.0189452133333333    0.8069636466666669    0.5000000000000000 C
   0.3522785466666666    0.1402969800000000    0.5000000000000000 C
   0.3522785466666667    0.4736303133333333    0.5000000000000000 C
   0.3522785466666666    0.8069636466666669    0.5000000000000000 C
   0.6856118800000000    0.1402969800000000    0.5000000000000000 C
   0.6856118800000000    0.4736303133333333    0.5000000000000000 C
   0.6856118800000001    0.8069636466666669    0.5000000000000000 C
   0.2401433700000000    0.0035842300000000    0.5000000000000000 C
   0.2401433700000000    0.3369175633333333    0.5000000000000000 C
   0.2401433700000001    0.6702508966666667    0.5000000000000000 C
   0.5734767033333333    0.0035842300000000    0.5000000000000000 C
   0.5734767033333331    0.3369175633333333    0.5000000000000000 C
   0.5734767033333333    0.6702508966666667    0.5000000000000000 C
   0.9068100366666667    0.0035842300000000    0.5000000000000000 C
   0.9068100366666665    0.3369175633333333    0.5000000000000000 C
   0.9068100366666664    0.6702508966666667    0.5000000000000000 C
   0.2539682533333333    0.0158730166666667    0.5000000000000000 C
   0.2539682533333332    0.3492063500000001    0.5000000000000000 C
   0.2539682533333333    0.6825396833333333    0.5000000000000000 C
   0.5873015866666665    0.0158730166666667    0.5000000000000000 C
   0.5873015866666664    0.3492063500000001    0.5000000000000000 C
   0.5873015866666668    0.6825396833333333    0.5000000000000000 C
   0.9206349199999999    0.0158730166666667    0.5000000000000000 C
   0.9206349199999998    0.3492063500000001    0.5000000000000000 C
   0.9206349199999997    0.6825396833333333    0.5000000000000000 C
   0.2677931400000001    0.0281618033333333    0.5000000000000000 C
   0.2677931400000000    0.3614951366666667    0.5000000000000000 C
   0.2677931400000000    0.6948284700000001    0.5000000000000000 C
   0.6011264733333332    0.0281618033333333    0.5000000000000000 C
   0.6011264733333332    0.3614951366666667    0.5000000000000000 C
   0.6011264733333334    0.6948284700000001    0.5000000000000000 C
   0.9344598066666666    0.0281618033333333    0.5000000000000000 C
   0.9344598066666664    0.3614951366666667    0.5000000000000000 C
   0.9344598066666667    0.6948284700000001    0.5000000000000000 C
   0.2816180233333334    0.0404505900000000    0.5000000000000000 C
   0.2816180233333334    0.3737839233333333    0.5000000000000000 C
   0.2816180233333334    0.7071172566666667    0.5000000000000000 C
   0.6149513566666667    0.0404505900000000    0.5000000000000000 C
   0.6149513566666666    0.3737839233333333    0.5000000000000000 C
   0.6149513566666668    0.7071172566666667    0.5000000000000000 C
   0.9482846899999999    0.0404505900000000    0.5000000000000000 C
   0.9482846899999999    0.3737839233333333    0.5000000000000000 C
   0.9482846900000000    0.7071172566666667    0.5000000000000000 C
   0.2954429100000000    0.0527393766666667    0.5000000000000000 C
   0.2954429100000000    0.3860727100000000    0.5000000000000000 C
   0.2954429100000000    0.7194060433333334    0.5000000000000000 C
   0.6287762433333334    0.0527393766666667    0.5000000000000000 C
   0.6287762433333333    0.3860727100000000    0.5000000000000000 C
   0.6287762433333334    0.7194060433333334    0.5000000000000000 C
   0.9621095766666666    0.0527393766666667    0.5000000000000000 C
   0.9621095766666666    0.3860727100000000    0.5000000000000000 C
   0.9621095766666664    0.7194060433333334    0.5000000000000000 C
   0.3092677933333332    0.0650281633333333    0.5000000000000000 C
   0.3092677933333334    0.3983614966666666    0.5000000000000000 C
   0.3092677933333334    0.7316948300000000    0.5000000000000000 C
   0.6426011266666666    0.0650281633333333    0.5000000000000000 C
   0.6426011266666666    0.3983614966666666    0.5000000000000000 C
   0.6426011266666665    0.7316948300000000    0.5000000000000000 C
   0.9759344599999997    0.0650281633333333    0.5000000000000000 C
   0.9759344599999996    0.3983614966666666    0.5000000000000000 C
   0.9759344599999997    0.7316948300000000    0.5000000000000000 C
   0.3230926766666667    0.0773169466666667    0.5000000000000000 C
   0.3230926766666668    0.4106502800000000    0.5000000000000000 C
   0.3230926766666668    0.7439836133333334    0.5000000000000000 C
   0.6564260099999999    0.0773169466666667    0.5000000000000000 C
   0.6564260100000000    0.4106502800000000    0.5000000000000000 C
   0.6564260100000002    0.7439836133333334    0.5000000000000000 C
   0.9897593433333333    0.0773169466666667    0.5000000000000000 C
   0.9897593433333334    0.4106502800000000    0.5000000000000000 C
   0.9897593433333333    0.7439836133333334    0.5000000000000000 C
   0.0035842300000000    0.0896057333333333    0.5000000000000000 C
   0.0035842300000001    0.4229390666666666    0.5000000000000000 C
   0.0035842300000000    0.7562724000000001    0.5000000000000000 C
   0.3369175633333333    0.0896057333333333    0.5000000000000000 C
   0.3369175633333333    0.4229390666666666    0.5000000000000000 C
   0.3369175633333334    0.7562724000000001    0.5000000000000000 C
   0.6702508966666666    0.0896057333333333    0.5000000000000000 C
   0.6702508966666666    0.4229390666666666    0.5000000000000000 C
   0.6702508966666666    0.7562724000000001    0.5000000000000000 C
   0.0174091133333333    0.1018945200000000    0.5000000000000000 C
   0.0174091133333333    0.4352278533333334    0.5000000000000000 C
   0.0174091133333334    0.7685611866666667    0.5000000000000000 C
   0.3507424466666667    0.1018945200000000    0.5000000000000000 C
   0.3507424466666665    0.4352278533333334    0.5000000000000000 C
   0.3507424466666667    0.7685611866666667    0.5000000000000000 C
   0.6840757799999998    0.1018945200000000    0.5000000000000000 C
   0.6840757799999999    0.4352278533333334    0.5000000000000000 C
   0.6840757799999999    0.7685611866666667    0.5000000000000000 C
   0.2800819266666667    0.0020481300000000    0.5000000000000000 C
   0.2800819266666668    0.3353814633333333    0.5000000000000000 C
   0.2800819266666668    0.6687147966666667    0.5000000000000000 C
   0.6134152600000001    0.0020481300000000    0.5000000000000000 C
   0.6134152600000000    0.3353814633333333    0.5000000000000000 C
   0.6134152600000001    0.6687147966666667    0.5000000000000000 C
   0.9467485933333334    0.0020481300000000    0.5000000000000000 C
   0.9467485933333333    0.3353814633333333    0.5000000000000000 C
   0.9467485933333332    0.6687147966666667    0.5000000000000000 C
   0.2939068100000000    0.0143369166666667    0.5000000000000000 C
   0.2939068100000001    0.3476702500000000    0.5000000000000000 C
   0.2939068100000001    0.6810035833333333    0.5000000000000000 C
   0.6272401433333332    0.0143369166666667    0.5000000000000000 C
   0.6272401433333331    0.3476702500000000    0.5000000000000000 C
   0.6272401433333334    0.6810035833333333    0.5000000000000000 C
   0.9605734766666666    0.0143369166666667    0.5000000000000000 C
   0.9605734766666666    0.3476702500000000    0.5000000000000000 C
   0.9605734766666665    0.6810035833333333    0.5000000000000000 C
   0.3077316933333334    0.0266257033333333    0.5000000000000000 C
   0.3077316933333334    0.3599590366666667    0.5000000000000000 C
   0.3077316933333334    0.6932923699999999    0.5000000000000000 C
   0.6410650266666668    0.0266257033333333    0.5000000000000000 C
   0.6410650266666669    0.3599590366666667    0.5000000000000000 C
   0.6410650266666669    0.6932923699999999    0.5000000000000000 C
   0.9743983599999999    0.0266257033333333    0.5000000000000000 C
   0.9743983599999998    0.3599590366666667    0.5000000000000000 C
   0.9743983599999998    0.6932923699999999    0.5000000000000000 C
   0.3215565800000000    0.0389144900000000    0.5000000000000000 C
   0.3215565800000000    0.3722478233333333    0.5000000000000000 C
   0.3215565800000000    0.7055811566666668    0.5000000000000000 C
   0.6548899133333334    0.0389144900000000    0.5000000000000000 C
   0.6548899133333334    0.3722478233333333    0.5000000000000000 C
   0.6548899133333335    0.7055811566666668    0.5000000000000000 C
   0.9882232466666666    0.0389144900000000    0.5000000000000000 C
   0.9882232466666665    0.3722478233333333    0.5000000000000000 C
   0.9882232466666665    0.7055811566666668    0.5000000000000000 C
   0.0020481300000000    0.0512032766666667    0.5000000000000000 C
   0.0020481300000000    0.3845366100000000    0.5000000000000000 C
   0.0020481300000001    0.7178699433333333    0.5000000000000000 C
   0.3353814633333333    0.0512032766666667    0.5000000000000000 C
   0.3353814633333334    0.3845366100000000    0.5000000000000000 C
   0.3353814633333335    0.7178699433333333    0.5000000000000000 C
   0.6687147966666667    0.0512032766666667    0.5000000000000000 C
   0.6687147966666667    0.3845366100000000    0.5000000000000000 C
   0.6687147966666668    0.7178699433333333    0.5000000000000000 C
   0.0158730166666667    0.0634920633333333    0.5000000000000000 C
   0.0158730166666666    0.3968253966666667    0.5000000000000000 C
   0.0158730166666667    0.7301587300000001    0.5000000000000000 C
   0.3492063499999999    0.0634920633333333    0.5000000000000000 C
   0.3492063499999998    0.3968253966666667    0.5000000000000000 C
   0.3492063499999999    0.7301587300000001    0.5000000000000000 C
   0.6825396833333333    0.0634920633333333    0.5000000000000000 C
   0.6825396833333331    0.3968253966666667    0.5000000000000000 C
   0.6825396833333331    0.7301587300000001    0.5000000000000000 C
   0.3200204800000000    0.0005120333333333    0.5000000000000000 C
   0.3200204800000001    0.3338453666666666    0.5000000000000000 C
   0.3200204800000002    0.6671787000000000    0.5000000000000000 C
   0.6533538133333334    0.0005120333333333    0.5000000000000000 C
   0.6533538133333334    0.3338453666666666    0.5000000000000000 C
   0.6533538133333334    0.6671787000000000    0.5000000000000000 C
   0.9866871466666667    0.0005120333333333    0.5000000000000000 C
   0.9866871466666667    0.3338453666666666    0.5000000000000000 C
   0.9866871466666665    0.6671787000000000    0.5000000000000000 C
   0.0005120333333333    0.0128008200000000    0.5000000000000000 C
   0.0005120333333334    0.3461341533333334    0.5000000000000000 C
   0.0005120333333335    0.6794674866666666    0.5000000000000000 C
   0.3338453666666665    0.0128008200000000    0.5000000000000000 C
   0.3338453666666665    0.3461341533333334    0.5000000000000000 C
   0.3338453666666668    0.6794674866666666    0.5000000000000000 C
   0.6671786999999997    0.0128008200000000    0.5000000000000000 C
   0.6671786999999999    0.3461341533333334    0.5000000000000000 C
   0.6671786999999997    0.6794674866666666    0.5000000000000000 C
   0.0143369166666667    0.0250896066666667    0.5000000000000000 C
   0.0143369166666667    0.3584229400000000    0.5000000000000000 C
   0.0143369166666667    0.6917562733333334    0.5000000000000000 C
   0.3476702500000000    0.0250896066666667    0.5000000000000000 C
   0.3476702500000000    0.3584229400000000    0.5000000000000000 C
   0.3476702500000000    0.6917562733333334    0.5000000000000000 C
   0.6810035833333333    0.0250896066666667    0.5000000000000000 C
   0.6810035833333332    0.3584229400000000    0.5000000000000000 C
   0.6810035833333333    0.6917562733333334    0.5000000000000000 C
   0.0143369166666667    0.2939068100000000    0.6254681647940075 C
   0.0143369166666667    0.6272401433333333    0.6254681647940075 C
   0.0143369166666667    0.9605734766666667    0.6254681647940075 C
   0.3476702500000000    0.2939068100000000    0.6254681647940075 C
   0.3476702500000001    0.6272401433333333    0.6254681647940075 C
   0.3476702500000000    0.9605734766666667    0.6254681647940075 C
   0.6810035833333331    0.2939068100000000    0.6254681647940075 C
   0.6810035833333331    0.6272401433333333    0.6254681647940075 C
   0.6810035833333332    0.9605734766666667    0.6254681647940075 C
   0.0266257033333333    0.3077316933333334    0.6254681647940075 C
   0.0266257033333334    0.6410650266666668    0.6254681647940075 C
   0.0266257033333334    0.9743983600000000    0.6254681647940075 C
   0.3599590366666667    0.3077316933333334    0.6254681647940075 C
   0.3599590366666666    0.6410650266666668    0.6254681647940075 C
   0.3599590366666667    0.9743983600000000    0.6254681647940075 C
   0.6932923700000000    0.3077316933333334    0.6254681647940075 C
   0.6932923699999999    0.6410650266666668    0.6254681647940075 C
   0.6932923699999999    0.9743983600000000    0.6254681647940075 C
   0.0389144900000000    0.3215565800000000    0.6254681647940075 C
   0.0389144900000000    0.6548899133333334    0.6254681647940075 C
   0.0389144900000000    0.9882232466666667    0.6254681647940075 C
   0.3722478233333334    0.3215565800000000    0.6254681647940075 C
   0.3722478233333333    0.6548899133333334    0.6254681647940075 C
   0.3722478233333336    0.9882232466666667    0.6254681647940075 C
   0.7055811566666665    0.3215565800000000    0.6254681647940075 C
   0.7055811566666664    0.6548899133333334    0.6254681647940075 C
   0.7055811566666665    0.9882232466666667    0.6254681647940075 C
   0.0158730166666667    0.2539682533333333    0.6254681647940075 C
   0.0158730166666667    0.5873015866666667    0.6254681647940075 C
   0.0158730166666667    0.9206349200000000    0.6254681647940075 C
   0.3492063500000001    0.2539682533333333    0.6254681647940075 C
   0.3492063499999999    0.5873015866666667    0.6254681647940075 C
   0.3492063500000001    0.9206349200000000    0.6254681647940075 C
   0.6825396833333333    0.2539682533333333    0.6254681647940075 C
   0.6825396833333333    0.5873015866666667    0.6254681647940075 C
   0.6825396833333335    0.9206349200000000    0.6254681647940075 C
   0.0281618033333333    0.2677931400000000    0.6254681647940075 C
   0.0281618033333334    0.6011264733333332    0.6254681647940075 C
   0.0281618033333333    0.9344598066666668    0.6254681647940075 C
   0.3614951366666665    0.2677931400000000    0.6254681647940075 C
   0.3614951366666664    0.6011264733333332    0.6254681647940075 C
   0.3614951366666667    0.9344598066666668    0.6254681647940075 C
   0.6948284699999999    0.2677931400000000    0.6254681647940075 C
   0.6948284700000000    0.6011264733333332    0.6254681647940075 C
   0.6948284700000000    0.9344598066666668    0.6254681647940075 C
   0.0404505900000000    0.2816180233333334    0.6254681647940075 C
   0.0404505900000000    0.6149513566666667    0.6254681647940075 C
   0.0404505900000000    0.9482846900000002    0.6254681647940075 C
   0.3737839233333333    0.2816180233333334    0.6254681647940075 C
   0.3737839233333333    0.6149513566666667    0.6254681647940075 C
   0.3737839233333333    0.9482846900000002    0.6254681647940075 C
   0.7071172566666666    0.2816180233333334    0.6254681647940075 C
   0.7071172566666667    0.6149513566666667    0.6254681647940075 C
   0.7071172566666665    0.9482846900000002    0.6254681647940075 C
   0.0527393766666667    0.2954429100000000    0.6254681647940075 C
   0.0527393766666667    0.6287762433333334    0.6254681647940075 C
   0.0527393766666668    0.9621095766666666    0.6254681647940075 C
   0.3860727099999999    0.2954429100000000    0.6254681647940075 C
   0.3860727099999999    0.6287762433333334    0.6254681647940075 C
   0.3860727099999999    0.9621095766666666    0.6254681647940075 C
   0.7194060433333331    0.2954429100000000    0.6254681647940075 C
   0.7194060433333332    0.6287762433333334    0.6254681647940075 C
   0.7194060433333331    0.9621095766666666    0.6254681647940075 C
   0.0650281633333333    0.3092677933333333    0.6254681647940075 C
   0.0650281633333334    0.6426011266666667    0.6254681647940075 C
   0.0650281633333334    0.9759344599999999    0.6254681647940075 C
   0.3983614966666667    0.3092677933333333    0.6254681647940075 C
   0.3983614966666666    0.6426011266666667    0.6254681647940075 C
   0.3983614966666668    0.9759344599999999    0.6254681647940075 C
   0.7316948299999998    0.3092677933333333    0.6254681647940075 C
   0.7316948300000000    0.6426011266666667    0.6254681647940075 C
   0.7316948300000001    0.9759344599999999    0.6254681647940075 C
   0.0773169466666667    0.3230926766666667    0.6254681647940075 C
   0.0773169466666668    0.6564260100000000    0.6254681647940075 C
   0.0773169466666668    0.9897593433333333    0.6254681647940075 C
   0.4106502800000000    0.3230926766666667    0.6254681647940075 C
   0.4106502800000000    0.6564260100000000    0.6254681647940075 C
   0.4106502800000003    0.9897593433333333    0.6254681647940075 C
   0.7439836133333333    0.3230926766666667    0.6254681647940075 C
   0.7439836133333333    0.6564260100000000    0.6254681647940075 C
   0.7439836133333332    0.9897593433333333    0.6254681647940075 C
   0.0174091133333334    0.2140296966666667    0.6254681647940075 C
   0.0174091133333334    0.5473630300000000    0.6254681647940075 C
   0.0174091133333333    0.8806963633333335    0.6254681647940075 C
   0.3507424466666667    0.2140296966666667    0.6254681647940075 C
   0.3507424466666666    0.5473630300000000    0.6254681647940075 C
   0.3507424466666667    0.8806963633333335    0.6254681647940075 C
   0.6840757799999998    0.2140296966666667    0.6254681647940075 C
   0.6840757799999999    0.5473630300000000    0.6254681647940075 C
   0.6840757799999998    0.8806963633333335    0.6254681647940075 C
   0.0296979000000000    0.2278545833333334    0.6254681647940075 C
   0.0296979000000000    0.5611879166666667    0.6254681647940075 C
   0.0296979000000000    0.8945212500000000    0.6254681647940075 C
   0.3630312333333333    0.2278545833333334    0.6254681647940075 C
   0.3630312333333332    0.5611879166666667    0.6254681647940075 C
   0.3630312333333334    0.8945212500000000    0.6254681647940075 C
   0.6963645666666666    0.2278545833333334    0.6254681647940075 C
   0.6963645666666666    0.5611879166666667    0.6254681647940075 C
   0.6963645666666664    0.8945212500000000    0.6254681647940075 C
   0.0419866866666667    0.2416794666666666    0.6254681647940075 C
   0.0419866866666667    0.5750128000000000    0.6254681647940075 C
   0.0419866866666668    0.9083461333333332    0.6254681647940075 C
   0.3753200199999999    0.2416794666666666    0.6254681647940075 C
   0.3753200199999999    0.5750128000000000    0.6254681647940075 C
   0.3753200200000001    0.9083461333333332    0.6254681647940075 C
   0.7086533533333332    0.2416794666666666    0.6254681647940075 C
   0.7086533533333332    0.5750128000000000    0.6254681647940075 C
   0.7086533533333331    0.9083461333333332    0.6254681647940075 C
   0.0542754733333333    0.2555043533333333    0.6254681647940075 C
   0.0542754733333333    0.5888376866666667    0.6254681647940075 C
   0.0542754733333333    0.9221710200000000    0.6254681647940075 C
   0.3876088066666667    0.2555043533333333    0.6254681647940075 C
   0.3876088066666665    0.5888376866666667    0.6254681647940075 C
   0.3876088066666667    0.9221710200000000    0.6254681647940075 C
   0.7209421400000001    0.2555043533333333    0.6254681647940075 C
   0.7209421399999999    0.5888376866666667    0.6254681647940075 C
   0.7209421399999998    0.9221710200000000    0.6254681647940075 C
   0.0665642600000000    0.2693292366666667    0.6254681647940075 C
   0.0665642600000000    0.6026625700000000    0.6254681647940075 C
   0.0665642600000001    0.9359959033333333    0.6254681647940075 C
   0.3998975933333334    0.2693292366666667    0.6254681647940075 C
   0.3998975933333332    0.6026625700000000    0.6254681647940075 C
   0.3998975933333336    0.9359959033333333    0.6254681647940075 C
   0.7332309266666666    0.2693292366666667    0.6254681647940075 C
   0.7332309266666666    0.6026625700000000    0.6254681647940075 C
   0.7332309266666666    0.9359959033333333    0.6254681647940075 C
   0.0788530466666667    0.2831541233333333    0.6254681647940075 C
   0.0788530466666668    0.6164874566666666    0.6254681647940075 C
   0.0788530466666667    0.9498207900000000    0.6254681647940075 C
   0.4121863800000000    0.2831541233333333    0.6254681647940075 C
   0.4121863799999999    0.6164874566666666    0.6254681647940075 C
   0.4121863800000001    0.9498207900000000    0.6254681647940075 C
   0.7455197133333333    0.2831541233333333    0.6254681647940075 C
   0.7455197133333332    0.6164874566666666    0.6254681647940075 C
   0.7455197133333333    0.9498207900000000    0.6254681647940075 C
   0.0911418333333334    0.2969790066666667    0.6254681647940075 C
   0.0911418333333334    0.6303123399999999    0.6254681647940075 C
   0.0911418333333334    0.9636456733333334    0.6254681647940075 C
   0.4244751666666667    0.2969790066666667    0.6254681647940075 C
   0.4244751666666667    0.6303123399999999    0.6254681647940075 C
   0.4244751666666665    0.9636456733333334    0.6254681647940075 C
   0.7578084999999999    0.2969790066666667    0.6254681647940075 C
   0.7578085000000000    0.6303123399999999    0.6254681647940075 C
   0.7578085000000000    0.9636456733333334    0.6254681647940075 C
   0.1034306200000000    0.3108038900000000    0.6254681647940075 C
   0.1034306200000001    0.6441372233333332    0.6254681647940075 C
   0.1034306200000001    0.9774705566666667    0.6254681647940075 C
   0.4367639533333333    0.3108038900000000    0.6254681647940075 C
   0.4367639533333333    0.6441372233333332    0.6254681647940075 C
   0.4367639533333333    0.9774705566666667    0.6254681647940075 C
   0.7700972866666667    0.3108038900000000    0.6254681647940075 C
   0.7700972866666667    0.6441372233333332    0.6254681647940075 C
   0.7700972866666667    0.9774705566666667    0.6254681647940075 C
   0.1157194066666667    0.3246287766666667    0.6254681647940075 C
   0.1157194066666667    0.6579621100000000    0.6254681647940075 C
   0.1157194066666667    0.9912954433333334    0.6254681647940075 C
   0.4490527400000001    0.3246287766666667    0.6254681647940075 C
   0.4490527399999999    0.6579621100000000    0.6254681647940075 C
   0.4490527400000002    0.9912954433333334    0.6254681647940075 C
   0.7823860733333334    0.3246287766666667    0.6254681647940075 C
   0.7823860733333332    0.6579621100000000    0.6254681647940075 C
   0.7823860733333331    0.9912954433333334    0.6254681647940075 C
   0.0189452133333333    0.1740911433333333    0.6254681647940075 C
   0.0189452133333334    0.5074244766666667    0.6254681647940075 C
   0.0189452133333334    0.8407578100000000    0.6254681647940075 C
   0.3522785466666667    0.1740911433333333    0.6254681647940075 C
   0.3522785466666667    0.5074244766666667    0.6254681647940075 C
   0.3522785466666667    0.8407578100000000    0.6254681647940075 C
   0.6856118799999998    0.1740911433333333    0.6254681647940075 C
   0.6856118800000000    0.5074244766666667    0.6254681647940075 C
   0.6856118800000002    0.8407578100000000    0.6254681647940075 C
   0.0312340000000000    0.1879160266666667    0.6254681647940075 C
   0.0312340000000000    0.5212493600000000    0.6254681647940075 C
   0.0312340000000001    0.8545826933333333    0.6254681647940075 C
   0.3645673333333333    0.1879160266666667    0.6254681647940075 C
   0.3645673333333334    0.5212493600000000    0.6254681647940075 C
   0.3645673333333334    0.8545826933333333    0.6254681647940075 C
   0.6979006666666666    0.1879160266666667    0.6254681647940075 C
   0.6979006666666666    0.5212493600000000    0.6254681647940075 C
   0.6979006666666665    0.8545826933333333    0.6254681647940075 C
   0.0435227866666667    0.2017409100000000    0.6254681647940075 C
   0.0435227866666667    0.5350742433333333    0.6254681647940075 C
   0.0435227866666668    0.8684075766666666    0.6254681647940075 C
   0.3768561199999999    0.2017409100000000    0.6254681647940075 C
   0.3768561199999999    0.5350742433333333    0.6254681647940075 C
   0.3768561200000001    0.8684075766666666    0.6254681647940075 C
   0.7101894533333332    0.2017409100000000    0.6254681647940075 C
   0.7101894533333331    0.5350742433333333    0.6254681647940075 C
   0.7101894533333332    0.8684075766666666    0.6254681647940075 C
   0.0558115733333334    0.2155657966666667    0.6254681647940075 C
   0.0558115733333334    0.5488991300000000    0.6254681647940075 C
   0.0558115733333334    0.8822324633333334    0.6254681647940075 C
   0.3891449066666666    0.2155657966666667    0.6254681647940075 C
   0.3891449066666665    0.5488991300000000    0.6254681647940075 C
   0.3891449066666667    0.8822324633333334    0.6254681647940075 C
   0.7224782400000000    0.2155657966666667    0.6254681647940075 C
   0.7224782400000000    0.5488991300000000    0.6254681647940075 C
   0.7224782399999997    0.8822324633333334    0.6254681647940075 C
   0.0681003600000000    0.2293906800000000    0.6254681647940075 C
   0.0681003600000000    0.5627240133333333    0.6254681647940075 C
   0.0681003600000000    0.8960573466666667    0.6254681647940075 C
   0.4014336933333333    0.2293906800000000    0.6254681647940075 C
   0.4014336933333333    0.5627240133333333    0.6254681647940075 C
   0.4014336933333334    0.8960573466666667    0.6254681647940075 C
   0.7347670266666665    0.2293906800000000    0.6254681647940075 C
   0.7347670266666666    0.5627240133333333    0.6254681647940075 C
   0.7347670266666665    0.8960573466666667    0.6254681647940075 C
   0.0803891433333333    0.2432155666666667    0.6254681647940075 C
   0.0803891433333333    0.5765489000000000    0.6254681647940075 C
   0.0803891433333334    0.9098822333333334    0.6254681647940075 C
   0.4137224766666667    0.2432155666666667    0.6254681647940075 C
   0.4137224766666666    0.5765489000000000    0.6254681647940075 C
   0.4137224766666667    0.9098822333333334    0.6254681647940075 C
   0.7470558100000000    0.2432155666666667    0.6254681647940075 C
   0.7470558100000000    0.5765489000000000    0.6254681647940075 C
   0.7470558099999997    0.9098822333333334    0.6254681647940075 C
   0.0926779300000000    0.2570404500000000    0.6254681647940075 C
   0.0926779300000000    0.5903737833333333    0.6254681647940075 C
   0.0926779300000000    0.9237071166666667    0.6254681647940075 C
   0.4260112633333333    0.2570404500000000    0.6254681647940075 C
   0.4260112633333334    0.5903737833333333    0.6254681647940075 C
   0.4260112633333333    0.9237071166666667    0.6254681647940075 C
   0.7593445966666665    0.2570404500000000    0.6254681647940075 C
   0.7593445966666665    0.5903737833333333    0.6254681647940075 C
   0.7593445966666664    0.9237071166666667    0.6254681647940075 C
   0.1049667166666667    0.2708653366666667    0.6254681647940075 C
   0.1049667166666668    0.6041986699999999    0.6254681647940075 C
   0.1049667166666666    0.9375320033333333    0.6254681647940075 C
   0.4383000499999998    0.2708653366666667    0.6254681647940075 C
   0.4383000499999999    0.6041986699999999    0.6254681647940075 C
   0.4383000500000000    0.9375320033333333    0.6254681647940075 C
   0.7716333833333333    0.2708653366666667    0.6254681647940075 C
   0.7716333833333334    0.6041986699999999    0.6254681647940075 C
   0.7716333833333332    0.9375320033333333    0.6254681647940075 C
   0.1172555033333333    0.2846902200000000    0.6254681647940075 C
   0.1172555033333334    0.6180235533333333    0.6254681647940075 C
   0.1172555033333333    0.9513568866666666    0.6254681647940075 C
   0.4505888366666667    0.2846902200000000    0.6254681647940075 C
   0.4505888366666665    0.6180235533333333    0.6254681647940075 C
   0.4505888366666667    0.9513568866666666    0.6254681647940075 C
   0.7839221700000000    0.2846902200000000    0.6254681647940075 C
   0.7839221700000000    0.6180235533333333    0.6254681647940075 C
   0.7839221700000000    0.9513568866666666    0.6254681647940075 C
   0.1295442900000001    0.2985151033333333    0.6254681647940075 C
   0.1295442900000001    0.6318484366666667    0.6254681647940075 C
   0.1295442900000000    0.9651817700000000    0.6254681647940075 C
   0.4628776233333334    0.2985151033333333    0.6254681647940075 C
   0.4628776233333333    0.6318484366666667    0.6254681647940075 C
   0.4628776233333335    0.9651817700000000    0.6254681647940075 C
   0.7962109566666667    0.2985151033333333    0.6254681647940075 C
   0.7962109566666667    0.6318484366666667    0.6254681647940075 C
   0.7962109566666664    0.9651817700000000    0.6254681647940075 C
   0.1418330766666667    0.3123399900000000    0.6254681647940075 C
   0.1418330766666668    0.6456733233333334    0.6254681647940075 C
   0.1418330766666666    0.9790066566666669    0.6254681647940075 C
   0.4751664100000000    0.3123399900000000    0.6254681647940075 C
   0.4751664100000002    0.6456733233333334    0.6254681647940075 C
   0.4751664099999999    0.9790066566666669    0.6254681647940075 C
   0.8084997433333332    0.3123399900000000    0.6254681647940075 C
   0.8084997433333332    0.6456733233333334    0.6254681647940075 C
   0.8084997433333330    0.9790066566666669    0.6254681647940075 C
   0.1541218633333333    0.3261648733333333    0.6254681647940075 C
   0.1541218633333334    0.6594982066666667    0.6254681647940075 C
   0.1541218633333334    0.9928315400000000    0.6254681647940075 C
   0.4874551966666665    0.3261648733333333    0.6254681647940075 C
   0.4874551966666665    0.6594982066666667    0.6254681647940075 C
   0.4874551966666669    0.9928315400000000    0.6254681647940075 C
   0.8207885300000002    0.3261648733333333    0.6254681647940075 C
   0.8207885300000001    0.6594982066666667    0.6254681647940075 C
   0.8207885299999997    0.9928315400000000    0.6254681647940075 C
   0.0204813100000000    0.1341525866666667    0.6254681647940075 C
   0.0204813100000000    0.4674859199999999    0.6254681647940075 C
   0.0204813100000000    0.8008192533333335    0.6254681647940075 C
   0.3538146433333333    0.1341525866666667    0.6254681647940075 C
   0.3538146433333333    0.4674859199999999    0.6254681647940075 C
   0.3538146433333333    0.8008192533333335    0.6254681647940075 C
   0.6871479766666666    0.1341525866666667    0.6254681647940075 C
   0.6871479766666666    0.4674859199999999    0.6254681647940075 C
   0.6871479766666667    0.8008192533333335    0.6254681647940075 C
   0.0327700966666667    0.1479774700000000    0.6254681647940075 C
   0.0327700966666667    0.4813108033333333    0.6254681647940075 C
   0.0327700966666666    0.8146441366666668    0.6254681647940075 C
   0.3661034299999999    0.1479774700000000    0.6254681647940075 C
   0.3661034300000000    0.4813108033333333    0.6254681647940075 C
   0.3661034300000001    0.8146441366666668    0.6254681647940075 C
   0.6994367633333332    0.1479774700000000    0.6254681647940075 C
   0.6994367633333332    0.4813108033333333    0.6254681647940075 C
   0.6994367633333332    0.8146441366666668    0.6254681647940075 C
   0.0450588833333333    0.1618023566666667    0.6254681647940075 C
   0.0450588833333334    0.4951356900000000    0.6254681647940075 C
   0.0450588833333334    0.8284690233333333    0.6254681647940075 C
   0.3783922166666667    0.1618023566666667    0.6254681647940075 C
   0.3783922166666666    0.4951356900000000    0.6254681647940075 C
   0.3783922166666667    0.8284690233333333    0.6254681647940075 C
   0.7117255500000000    0.1618023566666667    0.6254681647940075 C
   0.7117255499999998    0.4951356900000000    0.6254681647940075 C
   0.7117255499999998    0.8284690233333333    0.6254681647940075 C
   0.0573476700000000    0.1756272400000000    0.6254681647940075 C
   0.0573476700000000    0.5089605733333333    0.6254681647940075 C
   0.0573476700000000    0.8422939066666666    0.6254681647940075 C
   0.3906810033333333    0.1756272400000000    0.6254681647940075 C
   0.3906810033333333    0.5089605733333333    0.6254681647940075 C
   0.3906810033333334    0.8422939066666666    0.6254681647940075 C
   0.7240143366666666    0.1756272400000000    0.6254681647940075 C
   0.7240143366666666    0.5089605733333333    0.6254681647940075 C
   0.7240143366666668    0.8422939066666666    0.6254681647940075 C
   0.0696364566666667    0.1894521233333333    0.6254681647940075 C
   0.0696364566666666    0.5227854566666666    0.6254681647940075 C
   0.0696364566666666    0.8561187900000001    0.6254681647940075 C
   0.4029697900000000    0.1894521233333333    0.6254681647940075 C
   0.4029697900000000    0.5227854566666666    0.6254681647940075 C
   0.4029697900000000    0.8561187900000001    0.6254681647940075 C
   0.7363031233333333    0.1894521233333333    0.6254681647940075 C
   0.7363031233333333    0.5227854566666666    0.6254681647940075 C
   0.7363031233333330    0.8561187900000001    0.6254681647940075 C
   0.0819252433333334    0.2032770100000000    0.6254681647940075 C
   0.0819252433333333    0.5366103433333334    0.6254681647940075 C
   0.0819252433333334    0.8699436766666667    0.6254681647940075 C
   0.4152585766666667    0.2032770100000000    0.6254681647940075 C
   0.4152585766666667    0.5366103433333334    0.6254681647940075 C
   0.4152585766666667    0.8699436766666667    0.6254681647940075 C
   0.7485919099999998    0.2032770100000000    0.6254681647940075 C
   0.7485919100000000    0.5366103433333334    0.6254681647940075 C
   0.7485919099999998    0.8699436766666667    0.6254681647940075 C
   0.0942140300000000    0.2171018933333334    0.6254681647940075 C
   0.0942140300000000    0.5504352266666667    0.6254681647940075 C
   0.0942140300000000    0.8837685600000001    0.6254681647940075 C
   0.4275473633333332    0.2171018933333334    0.6254681647940075 C
   0.4275473633333334    0.5504352266666667    0.6254681647940075 C
   0.4275473633333334    0.8837685600000001    0.6254681647940075 C
   0.7608806966666666    0.2171018933333334    0.6254681647940075 C
   0.7608806966666665    0.5504352266666667    0.6254681647940075 C
   0.7608806966666668    0.8837685600000001    0.6254681647940075 C
   0.1065028166666667    0.2309267800000000    0.6254681647940075 C
   0.1065028166666666    0.5642601133333334    0.6254681647940075 C
   0.1065028166666667    0.8975934466666667    0.6254681647940075 C
   0.4398361500000000    0.2309267800000000    0.6254681647940075 C
   0.4398361500000000    0.5642601133333334    0.6254681647940075 C
   0.4398361500000000    0.8975934466666667    0.6254681647940075 C
   0.7731694833333332    0.2309267800000000    0.6254681647940075 C
   0.7731694833333334    0.5642601133333334    0.6254681647940075 C
   0.7731694833333334    0.8975934466666667    0.6254681647940075 C
   0.1187916033333333    0.2447516633333334    0.6254681647940075 C
   0.1187916033333334    0.5780849966666667    0.6254681647940075 C
   0.1187916033333334    0.9114183300000001    0.6254681647940075 C
   0.4521249366666666    0.2447516633333334    0.6254681647940075 C
   0.4521249366666667    0.5780849966666667    0.6254681647940075 C
   0.4521249366666668    0.9114183300000001    0.6254681647940075 C
   0.7854582699999999    0.2447516633333334    0.6254681647940075 C
   0.7854582699999999    0.5780849966666667    0.6254681647940075 C
   0.7854582699999997    0.9114183300000001    0.6254681647940075 C
   0.1310803900000000    0.2585765500000000    0.6254681647940075 C
   0.1310803900000000    0.5919098833333334    0.6254681647940075 C
   0.1310803900000002    0.9252432166666666    0.6254681647940075 C
   0.4644137233333334    0.2585765500000000    0.6254681647940075 C
   0.4644137233333333    0.5919098833333334    0.6254681647940075 C
   0.4644137233333334    0.9252432166666666    0.6254681647940075 C
   0.7977470566666666    0.2585765500000000    0.6254681647940075 C
   0.7977470566666667    0.5919098833333334    0.6254681647940075 C
   0.7977470566666668    0.9252432166666666    0.6254681647940075 C
   0.1433691766666667    0.2724014333333333    0.6254681647940075 C
   0.1433691766666667    0.6057347666666667    0.6254681647940075 C
   0.1433691766666667    0.9390681000000000    0.6254681647940075 C
   0.4767025099999999    0.2724014333333333    0.6254681647940075 C
   0.4767025100000000    0.6057347666666667    0.6254681647940075 C
   0.4767025100000002    0.9390681000000000    0.6254681647940075 C
   0.8100358433333333    0.2724014333333333    0.6254681647940075 C
   0.8100358433333331    0.6057347666666667    0.6254681647940075 C
   0.8100358433333336    0.9390681000000000    0.6254681647940075 C
   0.1556579633333333    0.2862263200000000    0.6254681647940075 C
   0.1556579633333334    0.6195596533333333    0.6254681647940075 C
   0.1556579633333335    0.9528929866666666    0.6254681647940075 C
   0.4889912966666665    0.2862263200000000    0.6254681647940075 C
   0.4889912966666667    0.6195596533333333    0.6254681647940075 C
   0.4889912966666668    0.9528929866666666    0.6254681647940075 C
   0.8223246300000000    0.2862263200000000    0.6254681647940075 C
   0.8223246300000000    0.6195596533333333    0.6254681647940075 C
   0.8223246300000001    0.9528929866666666    0.6254681647940075 C
   0.1679467500000000    0.3000512033333333    0.6254681647940075 C
   0.1679467500000000    0.6333845366666667    0.6254681647940075 C
   0.1679467499999999    0.9667178700000001    0.6254681647940075 C
   0.5012800833333335    0.3000512033333333    0.6254681647940075 C
   0.5012800833333334    0.6333845366666667    0.6254681647940075 C
   0.5012800833333333    0.9667178700000001    0.6254681647940075 C
   0.8346134166666666    0.3000512033333333    0.6254681647940075 C
   0.8346134166666663    0.6333845366666667    0.6254681647940075 C
   0.8346134166666663    0.9667178700000001    0.6254681647940075 C
   0.1802355366666666    0.3138760866666667    0.6254681647940075 C
   0.1802355366666668    0.6472094199999999    0.6254681647940075 C
   0.1802355366666666    0.9805427533333334    0.6254681647940075 C
   0.5135688699999998    0.3138760866666667    0.6254681647940075 C
   0.5135688699999998    0.6472094199999999    0.6254681647940075 C
   0.5135688700000000    0.9805427533333334    0.6254681647940075 C
   0.8469022033333333    0.3138760866666667    0.6254681647940075 C
   0.8469022033333333    0.6472094199999999    0.6254681647940075 C
   0.8469022033333330    0.9805427533333334    0.6254681647940075 C
   0.1925243200000000    0.3277009733333333    0.6254681647940075 C
   0.1925243200000001    0.6610343066666666    0.6254681647940075 C
   0.1925243200000002    0.9943676400000001    0.6254681647940075 C
   0.5258576533333335    0.3277009733333333    0.6254681647940075 C
   0.5258576533333335    0.6610343066666666    0.6254681647940075 C
   0.5258576533333332    0.9943676400000001    0.6254681647940075 C
   0.8591909866666666    0.3277009733333333    0.6254681647940075 C
   0.8591909866666665    0.6610343066666666    0.6254681647940075 C
   0.8591909866666665    0.9943676400000001    0.6254681647940075 C
   0.0220174100000000    0.0942140300000000    0.6254681647940075 C
   0.0220174100000000    0.4275473633333334    0.6254681647940075 C
   0.0220174100000001    0.7608806966666666    0.6254681647940075 C
   0.3553507433333333    0.0942140300000000    0.6254681647940075 C
   0.3553507433333333    0.4275473633333334    0.6254681647940075 C
   0.3553507433333333    0.7608806966666666    0.6254681647940075 C
   0.6886840766666665    0.0942140300000000    0.6254681647940075 C
   0.6886840766666664    0.4275473633333334    0.6254681647940075 C
   0.6886840766666665    0.7608806966666666    0.6254681647940075 C
   0.0343061966666667    0.1080389133333333    0.6254681647940075 C
   0.0343061966666667    0.4413722466666667    0.6254681647940075 C
   0.0343061966666667    0.7747055800000002    0.6254681647940075 C
   0.3676395299999999    0.1080389133333333    0.6254681647940075 C
   0.3676395300000000    0.4413722466666667    0.6254681647940075 C
   0.3676395300000000    0.7747055800000002    0.6254681647940075 C
   0.7009728633333334    0.1080389133333333    0.6254681647940075 C
   0.7009728633333333    0.4413722466666667    0.6254681647940075 C
   0.7009728633333333    0.7747055800000002    0.6254681647940075 C
   0.0465949833333334    0.1218638000000000    0.6254681647940075 C
   0.0465949833333334    0.4551971333333334    0.6254681647940075 C
   0.0465949833333334    0.7885304666666667    0.6254681647940075 C
   0.3799283166666667    0.1218638000000000    0.6254681647940075 C
   0.3799283166666666    0.4551971333333334    0.6254681647940075 C
   0.3799283166666665    0.7885304666666667    0.6254681647940075 C
   0.7132616499999999    0.1218638000000000    0.6254681647940075 C
   0.7132616499999997    0.4551971333333334    0.6254681647940075 C
   0.7132616499999997    0.7885304666666667    0.6254681647940075 C
   0.0588837700000000    0.1356886833333333    0.6254681647940075 C
   0.0588837700000001    0.4690220166666667    0.6254681647940075 C
   0.0588837700000000    0.8023553500000000    0.6254681647940075 C
   0.3922171033333333    0.1356886833333333    0.6254681647940075 C
   0.3922171033333334    0.4690220166666667    0.6254681647940075 C
   0.3922171033333335    0.8023553500000000    0.6254681647940075 C
   0.7255504366666666    0.1356886833333333    0.6254681647940075 C
   0.7255504366666666    0.4690220166666667    0.6254681647940075 C
   0.7255504366666665    0.8023553500000000    0.6254681647940075 C
   0.0711725566666667    0.1495135700000000    0.6254681647940075 C
   0.0711725566666667    0.4828469033333334    0.6254681647940075 C
   0.0711725566666667    0.8161802366666666    0.6254681647940075 C
   0.4045058900000000    0.1495135700000000    0.6254681647940075 C
   0.4045058900000000    0.4828469033333334    0.6254681647940075 C
   0.4045058900000003    0.8161802366666666    0.6254681647940075 C
   0.7378392233333332    0.1495135700000000    0.6254681647940075 C
   0.7378392233333332    0.4828469033333334    0.6254681647940075 C
   0.7378392233333332    0.8161802366666666    0.6254681647940075 C
   0.0834613400000000    0.1633384533333333    0.6254681647940075 C
   0.0834613400000001    0.4966717866666667    0.6254681647940075 C
   0.0834613400000001    0.8300051199999999    0.6254681647940075 C
   0.4167946733333334    0.1633384533333333    0.6254681647940075 C
   0.4167946733333333    0.4966717866666667    0.6254681647940075 C
   0.4167946733333334    0.8300051199999999    0.6254681647940075 C
   0.7501280066666667    0.1633384533333333    0.6254681647940075 C
   0.7501280066666668    0.4966717866666667    0.6254681647940075 C
   0.7501280066666668    0.8300051199999999    0.6254681647940075 C
   0.0957501266666667    0.1771633400000000    0.6254681647940075 C
   0.0957501266666668    0.5104966733333334    0.6254681647940075 C
   0.0957501266666668    0.8438300066666667    0.6254681647940075 C
   0.4290834600000000    0.1771633400000000    0.6254681647940075 C
   0.4290834599999999    0.5104966733333334    0.6254681647940075 C
   0.4290834600000001    0.8438300066666667    0.6254681647940075 C
   0.7624167933333332    0.1771633400000000    0.6254681647940075 C
   0.7624167933333332    0.5104966733333334    0.6254681647940075 C
   0.7624167933333331    0.8438300066666667    0.6254681647940075 C
   0.1080389133333334    0.1909882233333333    0.6254681647940075 C
   0.1080389133333334    0.5243215566666667    0.6254681647940075 C
   0.1080389133333334    0.8576548900000001    0.6254681647940075 C
   0.4413722466666667    0.1909882233333333    0.6254681647940075 C
   0.4413722466666667    0.5243215566666667    0.6254681647940075 C
   0.4413722466666666    0.8576548900000001    0.6254681647940075 C
   0.7747055800000000    0.1909882233333333    0.6254681647940075 C
   0.7747055799999999    0.5243215566666667    0.6254681647940075 C
   0.7747055799999998    0.8576548900000001    0.6254681647940075 C
   0.1203277000000000    0.2048131066666667    0.6254681647940075 C
   0.1203277000000000    0.5381464400000000    0.6254681647940075 C
   0.1203277000000002    0.8714797733333333    0.6254681647940075 C
   0.4536610333333334    0.2048131066666667    0.6254681647940075 C
   0.4536610333333333    0.5381464400000000    0.6254681647940075 C
   0.4536610333333334    0.8714797733333333    0.6254681647940075 C
   0.7869943666666666    0.2048131066666667    0.6254681647940075 C
   0.7869943666666667    0.5381464400000000    0.6254681647940075 C
   0.7869943666666668    0.8714797733333333    0.6254681647940075 C
   0.1326164866666667    0.2186379933333333    0.6254681647940075 C
   0.1326164866666667    0.5519713266666666    0.6254681647940075 C
   0.1326164866666667    0.8853046600000001    0.6254681647940075 C
   0.4659498200000001    0.2186379933333333    0.6254681647940075 C
   0.4659498200000000    0.5519713266666666    0.6254681647940075 C
   0.4659498200000001    0.8853046600000001    0.6254681647940075 C
   0.7992831533333333    0.2186379933333333    0.6254681647940075 C
   0.7992831533333333    0.5519713266666666    0.6254681647940075 C
   0.7992831533333333    0.8853046600000001    0.6254681647940075 C
   0.1449052733333333    0.2324628766666667    0.6254681647940075 C
   0.1449052733333333    0.5657962099999999    0.6254681647940075 C
   0.1449052733333333    0.8991295433333334    0.6254681647940075 C
   0.4782386066666667    0.2324628766666667    0.6254681647940075 C
   0.4782386066666667    0.5657962099999999    0.6254681647940075 C
   0.4782386066666668    0.8991295433333334    0.6254681647940075 C
   0.8115719400000000    0.2324628766666667    0.6254681647940075 C
   0.8115719400000000    0.5657962099999999    0.6254681647940075 C
   0.8115719399999999    0.8991295433333334    0.6254681647940075 C
   0.1571940600000001    0.2462877633333333    0.6254681647940075 C
   0.1571940600000000    0.5796210966666666    0.6254681647940075 C
   0.1571940600000002    0.9129544300000000    0.6254681647940075 C
   0.4905273933333333    0.2462877633333333    0.6254681647940075 C
   0.4905273933333333    0.5796210966666666    0.6254681647940075 C
   0.4905273933333333    0.9129544300000000    0.6254681647940075 C
   0.8238607266666667    0.2462877633333333    0.6254681647940075 C
   0.8238607266666667    0.5796210966666666    0.6254681647940075 C
   0.8238607266666669    0.9129544300000000    0.6254681647940075 C
   0.1694828466666666    0.2601126466666667    0.6254681647940075 C
   0.1694828466666666    0.5934459800000000    0.6254681647940075 C
   0.1694828466666667    0.9267793133333334    0.6254681647940075 C
   0.5028161799999999    0.2601126466666667    0.6254681647940075 C
   0.5028161799999999    0.5934459800000000    0.6254681647940075 C
   0.5028161800000001    0.9267793133333334    0.6254681647940075 C
   0.8361495133333332    0.2601126466666667    0.6254681647940075 C
   0.8361495133333333    0.5934459800000000    0.6254681647940075 C
   0.8361495133333334    0.9267793133333334    0.6254681647940075 C
   0.1817716333333334    0.2739375333333333    0.6254681647940075 C
   0.1817716333333334    0.6072708666666666    0.6254681647940075 C
   0.1817716333333335    0.9406042000000000    0.6254681647940075 C
   0.5151049666666668    0.2739375333333333    0.6254681647940075 C
   0.5151049666666667    0.6072708666666666    0.6254681647940075 C
   0.5151049666666666    0.9406042000000000    0.6254681647940075 C
   0.8484383000000000    0.2739375333333333    0.6254681647940075 C
   0.8484383000000000    0.6072708666666666    0.6254681647940075 C
   0.8484383000000000    0.9406042000000000    0.6254681647940075 C
   0.1940604200000000    0.2877624166666666    0.6254681647940075 C
   0.1940604200000001    0.6210957499999999    0.6254681647940075 C
   0.1940604200000001    0.9544290833333333    0.6254681647940075 C
   0.5273937533333334    0.2877624166666666    0.6254681647940075 C
   0.5273937533333334    0.6210957499999999    0.6254681647940075 C
   0.5273937533333335    0.9544290833333333    0.6254681647940075 C
   0.8607270866666669    0.2877624166666666    0.6254681647940075 C
   0.8607270866666665    0.6210957499999999    0.6254681647940075 C
   0.8607270866666668    0.9544290833333333    0.6254681647940075 C
   0.2063492066666667    0.3015873000000000    0.6254681647940075 C
   0.2063492066666667    0.6349206333333334    0.6254681647940075 C
   0.2063492066666666    0.9682539666666666    0.6254681647940075 C
   0.5396825400000000    0.3015873000000000    0.6254681647940075 C
   0.5396825400000000    0.6349206333333334    0.6254681647940075 C
   0.5396825399999999    0.9682539666666666    0.6254681647940075 C
   0.8730158733333333    0.3015873000000000    0.6254681647940075 C
   0.8730158733333331    0.6349206333333334    0.6254681647940075 C
   0.8730158733333330    0.9682539666666666    0.6254681647940075 C
   0.2186379933333333    0.3154121866666666    0.6254681647940075 C
   0.2186379933333333    0.6487455200000000    0.6254681647940075 C
   0.2186379933333335    0.9820788533333332    0.6254681647940075 C
   0.5519713266666668    0.3154121866666666    0.6254681647940075 C
   0.5519713266666666    0.6487455200000000    0.6254681647940075 C
   0.5519713266666667    0.9820788533333332    0.6254681647940075 C
   0.8853046599999997    0.3154121866666666    0.6254681647940075 C
   0.8853046599999997    0.6487455200000000    0.6254681647940075 C
   0.8853046600000002    0.9820788533333332    0.6254681647940075 C
   0.2309267800000000    0.3292370700000000    0.6254681647940075 C
   0.2309267800000001    0.6625704033333333    0.6254681647940075 C
   0.2309267800000000    0.9959037366666665    0.6254681647940075 C
   0.5642601133333331    0.3292370700000000    0.6254681647940075 C
   0.5642601133333333    0.6625704033333333    0.6254681647940075 C
   0.5642601133333334    0.9959037366666665    0.6254681647940075 C
   0.8975934466666666    0.3292370700000000    0.6254681647940075 C
   0.8975934466666665    0.6625704033333333    0.6254681647940075 C
   0.8975934466666668    0.9959037366666665    0.6254681647940075 C
   0.0235535066666667    0.0542754733333333    0.6254681647940075 C
   0.0235535066666667    0.3876088066666666    0.6254681647940075 C
   0.0235535066666667    0.7209421400000000    0.6254681647940075 C
   0.3568868399999999    0.0542754733333333    0.6254681647940075 C
   0.3568868400000000    0.3876088066666666    0.6254681647940075 C
   0.3568868400000001    0.7209421400000000    0.6254681647940075 C
   0.6902201733333334    0.0542754733333333    0.6254681647940075 C
   0.6902201733333333    0.3876088066666666    0.6254681647940075 C
   0.6902201733333331    0.7209421400000000    0.6254681647940075 C
   0.0358422933333333    0.0681003600000000    0.6254681647940075 C
   0.0358422933333334    0.4014336933333333    0.6254681647940075 C
   0.0358422933333334    0.7347670266666667    0.6254681647940075 C
   0.3691756266666666    0.0681003600000000    0.6254681647940075 C
   0.3691756266666667    0.4014336933333333    0.6254681647940075 C
   0.3691756266666668    0.7347670266666667    0.6254681647940075 C
   0.7025089599999998    0.0681003600000000    0.6254681647940075 C
   0.7025089600000000    0.4014336933333333    0.6254681647940075 C
   0.7025089599999997    0.7347670266666667    0.6254681647940075 C
   0.0481310800000000    0.0819252433333333    0.6254681647940075 C
   0.0481310800000000    0.4152585766666667    0.6254681647940075 C
   0.0481310800000000    0.7485919100000000    0.6254681647940075 C
   0.3814644133333333    0.0819252433333333    0.6254681647940075 C
   0.3814644133333332    0.4152585766666667    0.6254681647940075 C
   0.3814644133333335    0.7485919100000000    0.6254681647940075 C
   0.7147977466666667    0.0819252433333333    0.6254681647940075 C
   0.7147977466666666    0.4152585766666667    0.6254681647940075 C
   0.7147977466666664    0.7485919100000000    0.6254681647940075 C
   0.0604198666666667    0.0957501266666667    0.6254681647940075 C
   0.0604198666666667    0.4290834600000000    0.6254681647940075 C
   0.0604198666666667    0.7624167933333333    0.6254681647940075 C
   0.3937532000000000    0.0957501266666667    0.6254681647940075 C
   0.3937531999999999    0.4290834600000000    0.6254681647940075 C
   0.3937531999999999    0.7624167933333333    0.6254681647940075 C
   0.7270865333333332    0.0957501266666667    0.6254681647940075 C
   0.7270865333333332    0.4290834600000000    0.6254681647940075 C
   0.7270865333333332    0.7624167933333333    0.6254681647940075 C
   0.0727086533333333    0.1095750133333333    0.6254681647940075 C
   0.0727086533333333    0.4429083466666667    0.6254681647940075 C
   0.0727086533333333    0.7762416800000000    0.6254681647940075 C
   0.4060419866666666    0.1095750133333333    0.6254681647940075 C
   0.4060419866666665    0.4429083466666667    0.6254681647940075 C
   0.4060419866666666    0.7762416800000000    0.6254681647940075 C
   0.7393753199999999    0.1095750133333333    0.6254681647940075 C
   0.7393753199999997    0.4429083466666667    0.6254681647940075 C
   0.7393753199999997    0.7762416800000000    0.6254681647940075 C
   0.0849974400000000    0.1233998966666667    0.6254681647940075 C
   0.0849974400000001    0.4567332300000000    0.6254681647940075 C
   0.0849974400000000    0.7900665633333334    0.6254681647940075 C
   0.4183307733333333    0.1233998966666667    0.6254681647940075 C
   0.4183307733333333    0.4567332300000000    0.6254681647940075 C
   0.4183307733333332    0.7900665633333334    0.6254681647940075 C
   0.7516641066666665    0.1233998966666667    0.6254681647940075 C
   0.7516641066666665    0.4567332300000000    0.6254681647940075 C
   0.7516641066666665    0.7900665633333334    0.6254681647940075 C
   0.0972862266666667    0.1372247833333333    0.6254681647940075 C
   0.0972862266666667    0.4705581166666666    0.6254681647940075 C
   0.0972862266666666    0.8038914500000002    0.6254681647940075 C
   0.4306195600000000    0.1372247833333333    0.6254681647940075 C
   0.4306195600000000    0.4705581166666666    0.6254681647940075 C
   0.4306195600000001    0.8038914500000002    0.6254681647940075 C
   0.7639528933333333    0.1372247833333333    0.6254681647940075 C
   0.7639528933333332    0.4705581166666666    0.6254681647940075 C
   0.7639528933333330    0.8038914500000002    0.6254681647940075 C
   0.1095750133333333    0.1510496666666667    0.6254681647940075 C
   0.1095750133333334    0.4843830000000000    0.6254681647940075 C
   0.1095750133333333    0.8177163333333335    0.6254681647940075 C
   0.4429083466666666    0.1510496666666667    0.6254681647940075 C
   0.4429083466666667    0.4843830000000000    0.6254681647940075 C
   0.4429083466666667    0.8177163333333335    0.6254681647940075 C
   0.7762416799999998    0.1510496666666667    0.6254681647940075 C
   0.7762416799999999    0.4843830000000000    0.6254681647940075 C
   0.7762416799999997    0.8177163333333335    0.6254681647940075 C
   0.1218638000000000    0.1648745533333333    0.6254681647940075 C
   0.1218638000000000    0.4982078866666667    0.6254681647940075 C
   0.1218638000000001    0.8315412200000000    0.6254681647940075 C
   0.4551971333333333    0.1648745533333333    0.6254681647940075 C
   0.4551971333333332    0.4982078866666667    0.6254681647940075 C
   0.4551971333333335    0.8315412200000000    0.6254681647940075 C
   0.7885304666666668    0.1648745533333333    0.6254681647940075 C
   0.7885304666666668    0.4982078866666667    0.6254681647940075 C
   0.7885304666666664    0.8315412200000000    0.6254681647940075 C
   0.1341525866666667    0.1786994366666667    0.6254681647940075 C
   0.1341525866666666    0.5120327700000000    0.6254681647940075 C
   0.1341525866666667    0.8453661033333333    0.6254681647940075 C
   0.4674859199999999    0.1786994366666667    0.6254681647940075 C
   0.4674859199999999    0.5120327700000000    0.6254681647940075 C
   0.4674859200000001    0.8453661033333333    0.6254681647940075 C
   0.8008192533333331    0.1786994366666667    0.6254681647940075 C
   0.8008192533333333    0.5120327700000000    0.6254681647940075 C
   0.8008192533333331    0.8453661033333333    0.6254681647940075 C
   0.1464413733333333    0.1925243200000000    0.6254681647940075 C
   0.1464413733333333    0.5258576533333333    0.6254681647940075 C
   0.1464413733333334    0.8591909866666668    0.6254681647940075 C
   0.4797747066666667    0.1925243200000000    0.6254681647940075 C
   0.4797747066666666    0.5258576533333333    0.6254681647940075 C
   0.4797747066666667    0.8591909866666668    0.6254681647940075 C
   0.8131080399999999    0.1925243200000000    0.6254681647940075 C
   0.8131080399999999    0.5258576533333333    0.6254681647940075 C
   0.8131080400000000    0.8591909866666668    0.6254681647940075 C
   0.1587301600000000    0.2063492066666666    0.6254681647940075 C
   0.1587301600000000    0.5396825399999999    0.6254681647940075 C
   0.1587301600000000    0.8730158733333333    0.6254681647940075 C
   0.4920634933333334    0.2063492066666666    0.6254681647940075 C
   0.4920634933333333    0.5396825399999999    0.6254681647940075 C
   0.4920634933333333    0.8730158733333333    0.6254681647940075 C
   0.8253968266666667    0.2063492066666666    0.6254681647940075 C
   0.8253968266666666    0.5396825399999999    0.6254681647940075 C
   0.8253968266666665    0.8730158733333333    0.6254681647940075 C
   0.1710189466666667    0.2201740900000000    0.6254681647940075 C
   0.1710189466666666    0.5535074233333332    0.6254681647940075 C
   0.1710189466666668    0.8868407566666666    0.6254681647940075 C
   0.5043522800000000    0.2201740900000000    0.6254681647940075 C
   0.5043522800000000    0.5535074233333332    0.6254681647940075 C
   0.5043522800000001    0.8868407566666666    0.6254681647940075 C
   0.8376856133333332    0.2201740900000000    0.6254681647940075 C
   0.8376856133333334    0.5535074233333332    0.6254681647940075 C
   0.8376856133333331    0.8868407566666666    0.6254681647940075 C
   0.1833077333333334    0.2339989766666666    0.6254681647940075 C
   0.1833077333333334    0.5673323100000001    0.6254681647940075 C
   0.1833077333333335    0.9006656433333333    0.6254681647940075 C
   0.5166410666666668    0.2339989766666666    0.6254681647940075 C
   0.5166410666666665    0.5673323100000001    0.6254681647940075 C
   0.5166410666666666    0.9006656433333333    0.6254681647940075 C
   0.8499743999999999    0.2339989766666666    0.6254681647940075 C
   0.8499743999999999    0.5673323100000001    0.6254681647940075 C
   0.8499743999999996    0.9006656433333333    0.6254681647940075 C
   0.1955965166666667    0.2478238600000000    0.6254681647940075 C
   0.1955965166666667    0.5811571933333334    0.6254681647940075 C
   0.1955965166666667    0.9144905266666666    0.6254681647940075 C
   0.5289298500000000    0.2478238600000000    0.6254681647940075 C
   0.5289298500000001    0.5811571933333334    0.6254681647940075 C
   0.5289298500000000    0.9144905266666666    0.6254681647940075 C
   0.8622631833333333    0.2478238600000000    0.6254681647940075 C
   0.8622631833333333    0.5811571933333334    0.6254681647940075 C
   0.8622631833333334    0.9144905266666666    0.6254681647940075 C
   0.2078853033333334    0.2616487466666667    0.6254681647940075 C
   0.2078853033333334    0.5949820800000000    0.6254681647940075 C
   0.2078853033333335    0.9283154133333335    0.6254681647940075 C
   0.5412186366666667    0.2616487466666667    0.6254681647940075 C
   0.5412186366666666    0.5949820800000000    0.6254681647940075 C
   0.5412186366666669    0.9283154133333335    0.6254681647940075 C
   0.8745519700000001    0.2616487466666667    0.6254681647940075 C
   0.8745519699999998    0.5949820800000000    0.6254681647940075 C
   0.8745519700000000    0.9283154133333335    0.6254681647940075 C
   0.2201740900000000    0.2754736300000000    0.6254681647940075 C
   0.2201740899999999    0.6088069633333333    0.6254681647940075 C
   0.2201740900000001    0.9421402966666667    0.6254681647940075 C
   0.5535074233333334    0.2754736300000000    0.6254681647940075 C
   0.5535074233333332    0.6088069633333333    0.6254681647940075 C
   0.5535074233333335    0.9421402966666667    0.6254681647940075 C
   0.8868407566666665    0.2754736300000000    0.6254681647940075 C
   0.8868407566666666    0.6088069633333333    0.6254681647940075 C
   0.8868407566666667    0.9421402966666667    0.6254681647940075 C
   0.2324628766666667    0.2892985166666666    0.6254681647940075 C
   0.2324628766666667    0.6226318500000000    0.6254681647940075 C
   0.2324628766666667    0.9559651833333332    0.6254681647940075 C
   0.5657962099999999    0.2892985166666666    0.6254681647940075 C
   0.5657962099999999    0.6226318500000000    0.6254681647940075 C
   0.5657962100000000    0.9559651833333332    0.6254681647940075 C
   0.8991295433333334    0.2892985166666666    0.6254681647940075 C
   0.8991295433333334    0.6226318500000000    0.6254681647940075 C
   0.8991295433333331    0.9559651833333332    0.6254681647940075 C
   0.2447516633333334    0.3031234000000000    0.6254681647940075 C
   0.2447516633333334    0.6364567333333333    0.6254681647940075 C
   0.2447516633333333    0.9697900666666668    0.6254681647940075 C
   0.5780849966666667    0.3031234000000000    0.6254681647940075 C
   0.5780849966666666    0.6364567333333333    0.6254681647940075 C
   0.5780849966666669    0.9697900666666668    0.6254681647940075 C
   0.9114183300000001    0.3031234000000000    0.6254681647940075 C
   0.9114183300000002    0.6364567333333333    0.6254681647940075 C
   0.9114183300000002    0.9697900666666668    0.6254681647940075 C
   0.2570404500000001    0.3169482833333333    0.6254681647940075 C
   0.2570404500000000    0.6502816166666666    0.6254681647940075 C
   0.2570404500000001    0.9836149500000000    0.6254681647940075 C
   0.5903737833333335    0.3169482833333333    0.6254681647940075 C
   0.5903737833333335    0.6502816166666666    0.6254681647940075 C
   0.5903737833333332    0.9836149500000000    0.6254681647940075 C
   0.9237071166666666    0.3169482833333333    0.6254681647940075 C
   0.9237071166666665    0.6502816166666666    0.6254681647940075 C
   0.9237071166666663    0.9836149500000000    0.6254681647940075 C
   0.2693292366666667    0.3307731700000000    0.6254681647940075 C
   0.2693292366666667    0.6641065033333333    0.6254681647940075 C
   0.2693292366666667    0.9974398366666668    0.6254681647940075 C
   0.6026625700000000    0.3307731700000000    0.6254681647940075 C
   0.6026625699999999    0.6641065033333333    0.6254681647940075 C
   0.6026625700000000    0.9974398366666668    0.6254681647940075 C
   0.9359959033333329    0.3307731700000000    0.6254681647940075 C
   0.9359959033333333    0.6641065033333333    0.6254681647940075 C
   0.9359959033333333    0.9974398366666668    0.6254681647940075 C
   0.0128008200000000    0.0005120333333333    0.6254681647940075 C
   0.0128008200000000    0.3338453666666666    0.6254681647940075 C
   0.0128008200000000    0.6671787000000000    0.6254681647940075 C
   0.3461341533333332    0.0005120333333333    0.6254681647940075 C
   0.3461341533333334    0.3338453666666666    0.6254681647940075 C
   0.3461341533333335    0.6671787000000000    0.6254681647940075 C
   0.6794674866666668    0.0005120333333333    0.6254681647940075 C
   0.6794674866666667    0.3338453666666666    0.6254681647940075 C
   0.6794674866666668    0.6671787000000000    0.6254681647940075 C
   0.0250896066666667    0.0143369166666667    0.6254681647940075 C
   0.0250896066666667    0.3476702500000000    0.6254681647940075 C
   0.0250896066666667    0.6810035833333333    0.6254681647940075 C
   0.3584229399999999    0.0143369166666667    0.6254681647940075 C
   0.3584229400000000    0.3476702500000000    0.6254681647940075 C
   0.3584229400000000    0.6810035833333333    0.6254681647940075 C
   0.6917562733333331    0.0143369166666667    0.6254681647940075 C
   0.6917562733333332    0.3476702500000000    0.6254681647940075 C
   0.6917562733333333    0.6810035833333333    0.6254681647940075 C
   0.0373783933333333    0.0281618033333333    0.6254681647940075 C
   0.0373783933333333    0.3614951366666667    0.6254681647940075 C
   0.0373783933333334    0.6948284700000001    0.6254681647940075 C
   0.3707117266666667    0.0281618033333333    0.6254681647940075 C
   0.3707117266666667    0.3614951366666667    0.6254681647940075 C
   0.3707117266666668    0.6948284700000001    0.6254681647940075 C
   0.7040450600000000    0.0281618033333333    0.6254681647940075 C
   0.7040450599999998    0.3614951366666667    0.6254681647940075 C
   0.7040450599999997    0.6948284700000001    0.6254681647940075 C
   0.0496671800000000    0.0419866866666667    0.6254681647940075 C
   0.0496671800000000    0.3753200200000000    0.6254681647940075 C
   0.0496671800000000    0.7086533533333332    0.6254681647940075 C
   0.3830005133333332    0.0419866866666667    0.6254681647940075 C
   0.3830005133333333    0.3753200200000000    0.6254681647940075 C
   0.3830005133333334    0.7086533533333332    0.6254681647940075 C
   0.7163338466666664    0.0419866866666667    0.6254681647940075 C
   0.7163338466666668    0.3753200200000000    0.6254681647940075 C
   0.7163338466666667    0.7086533533333332    0.6254681647940075 C
   0.0619559666666667    0.0558115733333333    0.6254681647940075 C
   0.0619559666666666    0.3891449066666667    0.6254681647940075 C
   0.0619559666666667    0.7224782400000000    0.6254681647940075 C
   0.3952893000000000    0.0558115733333333    0.6254681647940075 C
   0.3952893000000000    0.3891449066666667    0.6254681647940075 C
   0.3952893000000002    0.7224782400000000    0.6254681647940075 C
   0.7286226333333333    0.0558115733333333    0.6254681647940075 C
   0.7286226333333333    0.3891449066666667    0.6254681647940075 C
   0.7286226333333332    0.7224782400000000    0.6254681647940075 C
   0.0742447500000000    0.0696364566666667    0.6254681647940075 C
   0.0742447500000001    0.4029697899999999    0.6254681647940075 C
   0.0742447500000001    0.7363031233333334    0.6254681647940075 C
   0.4075780833333333    0.0696364566666667    0.6254681647940075 C
   0.4075780833333333    0.4029697899999999    0.6254681647940075 C
   0.4075780833333334    0.7363031233333334    0.6254681647940075 C
   0.7409114166666666    0.0696364566666667    0.6254681647940075 C
   0.7409114166666666    0.4029697899999999    0.6254681647940075 C
   0.7409114166666667    0.7363031233333334    0.6254681647940075 C
   0.0865335366666667    0.0834613400000000    0.6254681647940075 C
   0.0865335366666667    0.4167946733333334    0.6254681647940075 C
   0.0865335366666667    0.7501280066666668    0.6254681647940075 C
   0.4198668700000000    0.0834613400000000    0.6254681647940075 C
   0.4198668699999999    0.4167946733333334    0.6254681647940075 C
   0.4198668700000001    0.7501280066666668    0.6254681647940075 C
   0.7532002033333333    0.0834613400000000    0.6254681647940075 C
   0.7532002033333333    0.4167946733333334    0.6254681647940075 C
   0.7532002033333330    0.7501280066666668    0.6254681647940075 C
   0.0988223233333333    0.0972862266666667    0.6254681647940075 C
   0.0988223233333333    0.4306195600000000    0.6254681647940075 C
   0.0988223233333335    0.7639528933333333    0.6254681647940075 C
   0.4321556566666667    0.0972862266666667    0.6254681647940075 C
   0.4321556566666666    0.4306195600000000    0.6254681647940075 C
   0.4321556566666668    0.7639528933333333    0.6254681647940075 C
   0.7654889899999999    0.0972862266666667    0.6254681647940075 C
   0.7654889899999999    0.4306195600000000    0.6254681647940075 C
   0.7654889899999997    0.7639528933333333    0.6254681647940075 C
   0.1111111111111111    0.1111111111111111    0.6254681647940075 C
   0.1111111111111111    0.4444444444444444    0.6254681647940075 C
   0.1111111111111111    0.7777777777777779    0.6254681647940075 C
   0.4444444444444444    0.1111111111111111    0.6254681647940075 C
   0.4444444444444445    0.4444444444444444    0.6254681647940075 C
   0.4444444444444444    0.7777777777777779    0.6254681647940075 C
   0.7777777777777777    0.1111111111111111    0.6254681647940075 C
   0.7777777777777777    0.4444444444444444    0.6254681647940075 C
   0.7777777777777778    0.7777777777777779    0.6254681647940075 C
   0.1233998966666667    0.1249359966666667    0.6254681647940075 C
   0.1233998966666667    0.4582693299999999    0.6254681647940075 C
   0.1233998966666668    0.7916026633333334    0.6254681647940075 C
   0.4567332299999999    0.1249359966666667    0.6254681647940075 C
   0.4567332299999999    0.4582693299999999    0.6254681647940075 C
   0.4567332300000000    0.7916026633333334    0.6254681647940075 C
   0.7900665633333332    0.1249359966666667    0.6254681647940075 C
   0.7900665633333332    0.4582693299999999    0.6254681647940075 C
   0.7900665633333334    0.7916026633333334    0.6254681647940075 C
   0.1356886833333334    0.1387608800000000    0.6254681647940075 C
   0.1356886833333334    0.4720942133333334    0.6254681647940075 C
   0.1356886833333334    0.8054275466666667    0.6254681647940075 C
   0.4690220166666667    0.1387608800000000    0.6254681647940075 C
   0.4690220166666667    0.4720942133333334    0.6254681647940075 C
   0.4690220166666668    0.8054275466666667    0.6254681647940075 C
   0.8023553499999999    0.1387608800000000    0.6254681647940075 C
   0.8023553499999998    0.4720942133333334    0.6254681647940075 C
   0.8023553499999997    0.8054275466666667    0.6254681647940075 C
   0.1479774700000000    0.1525857666666667    0.6254681647940075 C
   0.1479774700000000    0.4859191000000000    0.6254681647940075 C
   0.1479774700000002    0.8192524333333334    0.6254681647940075 C
   0.4813108033333333    0.1525857666666667    0.6254681647940075 C
   0.4813108033333333    0.4859191000000000    0.6254681647940075 C
   0.4813108033333334    0.8192524333333334    0.6254681647940075 C
   0.8146441366666665    0.1525857666666667    0.6254681647940075 C
   0.8146441366666665    0.4859191000000000    0.6254681647940075 C
   0.8146441366666664    0.8192524333333334    0.6254681647940075 C
   0.1602662566666667    0.1664106500000000    0.6254681647940075 C
   0.1602662566666667    0.4997439833333333    0.6254681647940075 C
   0.1602662566666668    0.8330773166666666    0.6254681647940075 C
   0.4935995900000000    0.1664106500000000    0.6254681647940075 C
   0.4935995899999998    0.4997439833333333    0.6254681647940075 C
   0.4935995900000001    0.8330773166666666    0.6254681647940075 C
   0.8269329233333335    0.1664106500000000    0.6254681647940075 C
   0.8269329233333335    0.4997439833333333    0.6254681647940075 C
   0.8269329233333333    0.8330773166666666    0.6254681647940075 C
   0.1725550433333334    0.1802355366666666    0.6254681647940075 C
   0.1725550433333335    0.5135688700000000    0.6254681647940075 C
   0.1725550433333334    0.8469022033333334    0.6254681647940075 C
   0.5058883766666665    0.1802355366666666    0.6254681647940075 C
   0.5058883766666665    0.5135688700000000    0.6254681647940075 C
   0.5058883766666670    0.8469022033333334    0.6254681647940075 C
   0.8392217099999998    0.1802355366666666    0.6254681647940075 C
   0.8392217099999998    0.5135688700000000    0.6254681647940075 C
   0.8392217100000001    0.8469022033333334    0.6254681647940075 C
   0.1848438300000000    0.1940604200000000    0.6254681647940075 C
   0.1848438300000000    0.5273937533333333    0.6254681647940075 C
   0.1848438300000001    0.8607270866666668    0.6254681647940075 C
   0.5181771633333334    0.1940604200000000    0.6254681647940075 C
   0.5181771633333333    0.5273937533333333    0.6254681647940075 C
   0.5181771633333334    0.8607270866666668    0.6254681647940075 C
   0.8515104966666666    0.1940604200000000    0.6254681647940075 C
   0.8515104966666666    0.5273937533333333    0.6254681647940075 C
   0.8515104966666663    0.8607270866666668    0.6254681647940075 C
   0.1971326166666667    0.2078853033333333    0.6254681647940075 C
   0.1971326166666667    0.5412186366666666    0.6254681647940075 C
   0.1971326166666666    0.8745519700000001    0.6254681647940075 C
   0.5304659500000000    0.2078853033333333    0.6254681647940075 C
   0.5304659500000000    0.5412186366666666    0.6254681647940075 C
   0.5304659500000001    0.8745519700000001    0.6254681647940075 C
   0.8637992833333332    0.2078853033333333    0.6254681647940075 C
   0.8637992833333330    0.5412186366666666    0.6254681647940075 C
   0.8637992833333331    0.8745519700000001    0.6254681647940075 C
   0.2094214033333335    0.2217101900000000    0.6254681647940075 C
   0.2094214033333334    0.5550435233333333    0.6254681647940075 C
   0.2094214033333333    0.8883768566666669    0.6254681647940075 C
   0.5427547366666666    0.2217101900000000    0.6254681647940075 C
   0.5427547366666666    0.5550435233333333    0.6254681647940075 C
   0.5427547366666667    0.8883768566666669    0.6254681647940075 C
   0.8760880700000001    0.2217101900000000    0.6254681647940075 C
   0.8760880700000001    0.5550435233333333    0.6254681647940075 C
   0.8760880699999999    0.8883768566666669    0.6254681647940075 C
   0.2217101900000000    0.2355350733333334    0.6254681647940075 C
   0.2217101900000000    0.5688684066666666    0.6254681647940075 C
   0.2217101900000001    0.9022017400000001    0.6254681647940075 C
   0.5550435233333333    0.2355350733333334    0.6254681647940075 C
   0.5550435233333333    0.5688684066666666    0.6254681647940075 C
   0.5550435233333334    0.9022017400000001    0.6254681647940075 C
   0.8883768566666667    0.2355350733333334    0.6254681647940075 C
   0.8883768566666665    0.5688684066666666    0.6254681647940075 C
   0.8883768566666664    0.9022017400000001    0.6254681647940075 C
   0.2339989766666666    0.2493599600000000    0.6254681647940075 C
   0.2339989766666666    0.5826932933333334    0.6254681647940075 C
   0.2339989766666667    0.9160266266666667    0.6254681647940075 C
   0.5673323100000000    0.2493599600000000    0.6254681647940075 C
   0.5673323099999998    0.5826932933333334    0.6254681647940075 C
   0.5673323100000000    0.9160266266666667    0.6254681647940075 C
   0.9006656433333333    0.2493599600000000    0.6254681647940075 C
   0.9006656433333329    0.5826932933333334    0.6254681647940075 C
   0.9006656433333330    0.9160266266666667    0.6254681647940075 C
   0.2462877633333333    0.2631848433333333    0.6254681647940075 C
   0.2462877633333333    0.5965181766666667    0.6254681647940075 C
   0.2462877633333333    0.9298515100000000    0.6254681647940075 C
   0.5796210966666667    0.2631848433333333    0.6254681647940075 C
   0.5796210966666666    0.5965181766666667    0.6254681647940075 C
   0.5796210966666667    0.9298515100000000    0.6254681647940075 C
   0.9129544299999997    0.2631848433333333    0.6254681647940075 C
   0.9129544299999997    0.5965181766666667    0.6254681647940075 C
   0.9129544299999998    0.9298515100000000    0.6254681647940075 C
   0.2585765500000000    0.2770097300000000    0.6254681647940075 C
   0.2585765500000001    0.6103430633333333    0.6254681647940075 C
   0.2585765500000001    0.9436763966666666    0.6254681647940075 C
   0.5919098833333334    0.2770097300000000    0.6254681647940075 C
   0.5919098833333334    0.6103430633333333    0.6254681647940075 C
   0.5919098833333334    0.9436763966666666    0.6254681647940075 C
   0.9252432166666666    0.2770097300000000    0.6254681647940075 C
   0.9252432166666665    0.6103430633333333    0.6254681647940075 C
   0.9252432166666664    0.9436763966666666    0.6254681647940075 C
   0.2708653366666667    0.2908346133333333    0.6254681647940075 C
   0.2708653366666667    0.6241679466666666    0.6254681647940075 C
   0.2708653366666668    0.9575012800000000    0.6254681647940075 C
   0.6041986700000000    0.2908346133333333    0.6254681647940075 C
   0.6041986699999999    0.6241679466666666    0.6254681647940075 C
   0.6041986700000003    0.9575012800000000    0.6254681647940075 C
   0.9375320033333334    0.2908346133333333    0.6254681647940075 C
   0.9375320033333332    0.6241679466666666    0.6254681647940075 C
   0.9375320033333333    0.9575012800000000    0.6254681647940075 C
   0.2831541233333334    0.3046594966666666    0.6254681647940075 C
   0.2831541233333336    0.6379928300000000    0.6254681647940075 C
   0.2831541233333334    0.9713261633333333    0.6254681647940075 C
   0.6164874566666668    0.3046594966666666    0.6254681647940075 C
   0.6164874566666668    0.6379928300000000    0.6254681647940075 C
   0.6164874566666665    0.9713261633333333    0.6254681647940075 C
   0.9498207899999999    0.3046594966666666    0.6254681647940075 C
   0.9498207900000000    0.6379928300000000    0.6254681647940075 C
   0.9498207899999997    0.9713261633333333    0.6254681647940075 C
   0.2954429100000001    0.3184843833333333    0.6254681647940075 C
   0.2954429100000001    0.6518177166666667    0.6254681647940075 C
   0.2954429100000002    0.9851510499999999    0.6254681647940075 C
   0.6287762433333334    0.3184843833333333    0.6254681647940075 C
   0.6287762433333333    0.6518177166666667    0.6254681647940075 C
   0.6287762433333335    0.9851510499999999    0.6254681647940075 C
   0.9621095766666663    0.3184843833333333    0.6254681647940075 C
   0.9621095766666663    0.6518177166666667    0.6254681647940075 C
   0.9621095766666665    0.9851510499999999    0.6254681647940075 C
   0.3077316933333333    0.3323092666666667    0.6254681647940075 C
   0.3077316933333335    0.6656426000000000    0.6254681647940075 C
   0.3077316933333334    0.9989759333333332    0.6254681647940075 C
   0.6410650266666668    0.3323092666666667    0.6254681647940075 C
   0.6410650266666668    0.6656426000000000    0.6254681647940075 C
   0.6410650266666668    0.9989759333333332    0.6254681647940075 C
   0.9743983600000000    0.3323092666666667    0.6254681647940075 C
   0.9743983599999999    0.6656426000000000    0.6254681647940075 C
   0.9743983600000000    0.9989759333333332    0.6254681647940075 C
   0.0512032766666667    0.0020481300000000    0.6254681647940075 C
   0.0512032766666667    0.3353814633333333    0.6254681647940075 C
   0.0512032766666667    0.6687147966666667    0.6254681647940075 C
   0.3845366099999999    0.0020481300000000    0.6254681647940075 C
   0.3845366100000000    0.3353814633333333    0.6254681647940075 C
   0.3845366100000001    0.6687147966666667    0.6254681647940075 C
   0.7178699433333334    0.0020481300000000    0.6254681647940075 C
   0.7178699433333333    0.3353814633333333    0.6254681647940075 C
   0.7178699433333334    0.6687147966666667    0.6254681647940075 C
   0.0634920633333333    0.0158730166666667    0.6254681647940075 C
   0.0634920633333333    0.3492063500000001    0.6254681647940075 C
   0.0634920633333334    0.6825396833333333    0.6254681647940075 C
   0.3968253966666666    0.0158730166666667    0.6254681647940075 C
   0.3968253966666666    0.3492063500000001    0.6254681647940075 C
   0.3968253966666668    0.6825396833333333    0.6254681647940075 C
   0.7301587299999999    0.0158730166666667    0.6254681647940075 C
   0.7301587299999999    0.3492063500000001    0.6254681647940075 C
   0.7301587300000001    0.6825396833333333    0.6254681647940075 C
   0.0757808500000000    0.0296979000000000    0.6254681647940075 C
   0.0757808499999999    0.3630312333333334    0.6254681647940075 C
   0.0757808500000001    0.6963645666666666    0.6254681647940075 C
   0.4091141833333333    0.0296979000000000    0.6254681647940075 C
   0.4091141833333333    0.3630312333333334    0.6254681647940075 C
   0.4091141833333334    0.6963645666666666    0.6254681647940075 C
   0.7424475166666668    0.0296979000000000    0.6254681647940075 C
   0.7424475166666666    0.3630312333333334    0.6254681647940075 C
   0.7424475166666669    0.6963645666666666    0.6254681647940075 C
   0.0880696366666667    0.0435227866666667    0.6254681647940075 C
   0.0880696366666667    0.3768561200000000    0.6254681647940075 C
   0.0880696366666668    0.7101894533333334    0.6254681647940075 C
   0.4214029700000000    0.0435227866666667    0.6254681647940075 C
   0.4214029700000000    0.3768561200000000    0.6254681647940075 C
   0.4214029700000001    0.7101894533333334    0.6254681647940075 C
   0.7547363033333331    0.0435227866666667    0.6254681647940075 C
   0.7547363033333332    0.3768561200000000    0.6254681647940075 C
   0.7547363033333334    0.7101894533333334    0.6254681647940075 C
   0.1003584233333333    0.0573476700000000    0.6254681647940075 C
   0.1003584233333333    0.3906810033333333    0.6254681647940075 C
   0.1003584233333334    0.7240143366666667    0.6254681647940075 C
   0.4336917566666667    0.0573476700000000    0.6254681647940075 C
   0.4336917566666667    0.3906810033333333    0.6254681647940075 C
   0.4336917566666668    0.7240143366666667    0.6254681647940075 C
   0.7670250900000000    0.0573476700000000    0.6254681647940075 C
   0.7670250899999997    0.3906810033333333    0.6254681647940075 C
   0.7670250900000001    0.7240143366666667    0.6254681647940075 C
   0.1126472100000000    0.0711725566666667    0.6254681647940075 C
   0.1126472100000000    0.4045058900000001    0.6254681647940075 C
   0.1126472100000000    0.7378392233333334    0.6254681647940075 C
   0.4459805433333333    0.0711725566666667    0.6254681647940075 C
   0.4459805433333334    0.4045058900000001    0.6254681647940075 C
   0.4459805433333334    0.7378392233333334    0.6254681647940075 C
   0.7793138766666665    0.0711725566666667    0.6254681647940075 C
   0.7793138766666665    0.4045058900000001    0.6254681647940075 C
   0.7793138766666667    0.7378392233333334    0.6254681647940075 C
   0.1249359966666666    0.0849974400000000    0.6254681647940075 C
   0.1249359966666666    0.4183307733333334    0.6254681647940075 C
   0.1249359966666667    0.7516641066666667    0.6254681647940075 C
   0.4582693299999999    0.0849974400000000    0.6254681647940075 C
   0.4582693299999999    0.4183307733333334    0.6254681647940075 C
   0.4582693300000001    0.7516641066666667    0.6254681647940075 C
   0.7916026633333334    0.0849974400000000    0.6254681647940075 C
   0.7916026633333334    0.4183307733333334    0.6254681647940075 C
   0.7916026633333334    0.7516641066666667    0.6254681647940075 C
   0.1372247833333334    0.0988223233333333    0.6254681647940075 C
   0.1372247833333334    0.4321556566666667    0.6254681647940075 C
   0.1372247833333334    0.7654889900000000    0.6254681647940075 C
   0.4705581166666666    0.0988223233333333    0.6254681647940075 C
   0.4705581166666666    0.4321556566666667    0.6254681647940075 C
   0.4705581166666669    0.7654889900000000    0.6254681647940075 C
   0.8038914499999998    0.0988223233333333    0.6254681647940075 C
   0.8038914499999998    0.4321556566666667    0.6254681647940075 C
   0.8038914500000000    0.7654889900000000    0.6254681647940075 C
   0.1495135700000000    0.1126472100000000    0.6254681647940075 C
   0.1495135700000000    0.4459805433333333    0.6254681647940075 C
   0.1495135700000000    0.7793138766666666    0.6254681647940075 C
   0.4828469033333332    0.1126472100000000    0.6254681647940075 C
   0.4828469033333332    0.4459805433333333    0.6254681647940075 C
   0.4828469033333334    0.7793138766666666    0.6254681647940075 C
   0.8161802366666666    0.1126472100000000    0.6254681647940075 C
   0.8161802366666665    0.4459805433333333    0.6254681647940075 C
   0.8161802366666665    0.7793138766666666    0.6254681647940075 C
   0.1618023566666667    0.1264720933333333    0.6254681647940075 C
   0.1618023566666668    0.4598054266666667    0.6254681647940075 C
   0.1618023566666667    0.7931387600000001    0.6254681647940075 C
   0.4951356900000000    0.1264720933333333    0.6254681647940075 C
   0.4951356900000000    0.4598054266666667    0.6254681647940075 C
   0.4951356899999999    0.7931387600000001    0.6254681647940075 C
   0.8284690233333331    0.1264720933333333    0.6254681647940075 C
   0.8284690233333332    0.4598054266666667    0.6254681647940075 C
   0.8284690233333333    0.7931387600000001    0.6254681647940075 C
   0.1740911433333334    0.1402969800000000    0.6254681647940075 C
   0.1740911433333334    0.4736303133333333    0.6254681647940075 C
   0.1740911433333335    0.8069636466666669    0.6254681647940075 C
   0.5074244766666667    0.1402969800000000    0.6254681647940075 C
   0.5074244766666668    0.4736303133333333    0.6254681647940075 C
   0.5074244766666668    0.8069636466666669    0.6254681647940075 C
   0.8407578099999999    0.1402969800000000    0.6254681647940075 C
   0.8407578100000000    0.4736303133333333    0.6254681647940075 C
   0.8407578099999998    0.8069636466666669    0.6254681647940075 C
   0.1863799266666667    0.1541218633333333    0.6254681647940075 C
   0.1863799266666667    0.4874551966666666    0.6254681647940075 C
   0.1863799266666668    0.8207885300000002    0.6254681647940075 C
   0.5197132600000000    0.1541218633333333    0.6254681647940075 C
   0.5197132599999998    0.4874551966666666    0.6254681647940075 C
   0.5197132600000000    0.8207885300000002    0.6254681647940075 C
   0.8530465933333333    0.1541218633333333    0.6254681647940075 C
   0.8530465933333333    0.4874551966666666    0.6254681647940075 C
   0.8530465933333333    0.8207885300000002    0.6254681647940075 C
   0.1986687133333334    0.1679467500000000    0.6254681647940075 C
   0.1986687133333334    0.5012800833333333    0.6254681647940075 C
   0.1986687133333334    0.8346134166666667    0.6254681647940075 C
   0.5320020466666667    0.1679467500000000    0.6254681647940075 C
   0.5320020466666666    0.5012800833333333    0.6254681647940075 C
   0.5320020466666668    0.8346134166666667    0.6254681647940075 C
   0.8653353799999999    0.1679467500000000    0.6254681647940075 C
   0.8653353799999998    0.5012800833333333    0.6254681647940075 C
   0.8653353800000001    0.8346134166666667    0.6254681647940075 C
   0.2109575000000000    0.1817716333333333    0.6254681647940075 C
   0.2109575000000000    0.5151049666666667    0.6254681647940075 C
   0.2109575000000000    0.8484383000000000    0.6254681647940075 C
   0.5442908333333332    0.1817716333333333    0.6254681647940075 C
   0.5442908333333332    0.5151049666666667    0.6254681647940075 C
   0.5442908333333336    0.8484383000000000    0.6254681647940075 C
   0.8776241666666668    0.1817716333333333    0.6254681647940075 C
   0.8776241666666664    0.5151049666666667    0.6254681647940075 C
   0.8776241666666668    0.8484383000000000    0.6254681647940075 C
   0.2232462866666668    0.1955965166666666    0.6254681647940075 C
   0.2232462866666667    0.5289298500000000    0.6254681647940075 C
   0.2232462866666668    0.8622631833333333    0.6254681647940075 C
   0.5565796200000001    0.1955965166666666    0.6254681647940075 C
   0.5565796200000002    0.5289298500000000    0.6254681647940075 C
   0.5565796200000001    0.8622631833333333    0.6254681647940075 C
   0.8899129533333334    0.1955965166666666    0.6254681647940075 C
   0.8899129533333333    0.5289298500000000    0.6254681647940075 C
   0.8899129533333332    0.8622631833333333    0.6254681647940075 C
   0.2355350733333333    0.2094214033333333    0.6254681647940075 C
   0.2355350733333334    0.5427547366666666    0.6254681647940075 C
   0.2355350733333333    0.8760880700000000    0.6254681647940075 C
   0.5688684066666666    0.2094214033333333    0.6254681647940075 C
   0.5688684066666667    0.5427547366666666    0.6254681647940075 C
   0.5688684066666666    0.8760880700000000    0.6254681647940075 C
   0.9022017399999998    0.2094214033333333    0.6254681647940075 C
   0.9022017399999998    0.5427547366666666    0.6254681647940075 C
   0.9022017399999999    0.8760880700000000    0.6254681647940075 C
   0.2478238600000001    0.2232462866666667    0.6254681647940075 C
   0.2478238600000001    0.5565796200000001    0.6254681647940075 C
   0.2478238600000001    0.8899129533333333    0.6254681647940075 C
   0.5811571933333334    0.2232462866666667    0.6254681647940075 C
   0.5811571933333336    0.5565796200000001    0.6254681647940075 C
   0.5811571933333333    0.8899129533333333    0.6254681647940075 C
   0.9144905266666666    0.2232462866666667    0.6254681647940075 C
   0.9144905266666665    0.5565796200000001    0.6254681647940075 C
   0.9144905266666665    0.8899129533333333    0.6254681647940075 C
   0.2601126466666667    0.2370711733333334    0.6254681647940075 C
   0.2601126466666667    0.5704045066666666    0.6254681647940075 C
   0.2601126466666666    0.9037378400000001    0.6254681647940075 C
   0.5934459799999999    0.2370711733333334    0.6254681647940075 C
   0.5934459799999999    0.5704045066666666    0.6254681647940075 C
   0.5934459799999998    0.9037378400000001    0.6254681647940075 C
   0.9267793133333333    0.2370711733333334    0.6254681647940075 C
   0.9267793133333332    0.5704045066666666    0.6254681647940075 C
   0.9267793133333331    0.9037378400000001    0.6254681647940075 C
   0.2724014333333333    0.2508960566666667    0.6254681647940075 C
   0.2724014333333333    0.5842293900000000    0.6254681647940075 C
   0.2724014333333334    0.9175627233333333    0.6254681647940075 C
   0.6057347666666667    0.2508960566666667    0.6254681647940075 C
   0.6057347666666666    0.5842293900000000    0.6254681647940075 C
   0.6057347666666667    0.9175627233333333    0.6254681647940075 C
   0.9390681000000000    0.2508960566666667    0.6254681647940075 C
   0.9390680999999996    0.5842293900000000    0.6254681647940075 C
   0.9390680999999997    0.9175627233333333    0.6254681647940075 C
   0.2846902200000000    0.2647209433333333    0.6254681647940075 C
   0.2846902200000001    0.5980542766666666    0.6254681647940075 C
   0.2846902200000000    0.9313876100000001    0.6254681647940075 C
   0.6180235533333334    0.2647209433333333    0.6254681647940075 C
   0.6180235533333334    0.5980542766666666    0.6254681647940075 C
   0.6180235533333335    0.9313876100000001    0.6254681647940075 C
   0.9513568866666666    0.2647209433333333    0.6254681647940075 C
   0.9513568866666665    0.5980542766666666    0.6254681647940075 C
   0.9513568866666665    0.9313876100000001    0.6254681647940075 C
   0.2969790066666667    0.2785458266666667    0.6254681647940075 C
   0.2969790066666667    0.6118791600000000    0.6254681647940075 C
   0.2969790066666667    0.9452124933333333    0.6254681647940075 C
   0.6303123399999999    0.2785458266666667    0.6254681647940075 C
   0.6303123399999999    0.6118791600000000    0.6254681647940075 C
   0.6303123400000000    0.9452124933333333    0.6254681647940075 C
   0.9636456733333333    0.2785458266666667    0.6254681647940075 C
   0.9636456733333332    0.6118791600000000    0.6254681647940075 C
   0.9636456733333333    0.9452124933333333    0.6254681647940075 C
   0.3092677933333334    0.2923707133333334    0.6254681647940075 C
   0.3092677933333334    0.6257040466666667    0.6254681647940075 C
   0.3092677933333334    0.9590373799999999    0.6254681647940075 C
   0.6426011266666666    0.2923707133333334    0.6254681647940075 C
   0.6426011266666666    0.6257040466666667    0.6254681647940075 C
   0.6426011266666666    0.9590373799999999    0.6254681647940075 C
   0.9759344599999999    0.2923707133333334    0.6254681647940075 C
   0.9759344599999999    0.6257040466666667    0.6254681647940075 C
   0.9759344599999998    0.9590373799999999    0.6254681647940075 C
   0.3215565800000001    0.3061955966666667    0.6254681647940075 C
   0.3215565800000000    0.6395289300000000    0.6254681647940075 C
   0.3215565800000000    0.9728622633333335    0.6254681647940075 C
   0.6548899133333332    0.3061955966666667    0.6254681647940075 C
   0.6548899133333332    0.6395289300000000    0.6254681647940075 C
   0.6548899133333332    0.9728622633333335    0.6254681647940075 C
   0.9882232466666666    0.3061955966666667    0.6254681647940075 C
   0.9882232466666667    0.6395289300000000    0.6254681647940075 C
   0.9882232466666665    0.9728622633333335    0.6254681647940075 C
   0.0005120333333333    0.3200204800000000    0.6254681647940075 C
   0.0005120333333334    0.6533538133333333    0.6254681647940075 C
   0.0005120333333333    0.9866871466666668    0.6254681647940075 C
   0.3338453666666665    0.3200204800000000    0.6254681647940075 C
   0.3338453666666667    0.6533538133333333    0.6254681647940075 C
   0.3338453666666667    0.9866871466666668    0.6254681647940075 C
   0.6671787000000000    0.3200204800000000    0.6254681647940075 C
   0.6671787000000000    0.6533538133333333    0.6254681647940075 C
   0.6671786999999998    0.9866871466666668    0.6254681647940075 C
   0.0896057333333333    0.0035842300000000    0.6254681647940075 C
   0.0896057333333333    0.3369175633333333    0.6254681647940075 C
   0.0896057333333334    0.6702508966666667    0.6254681647940075 C
   0.4229390666666666    0.0035842300000000    0.6254681647940075 C
   0.4229390666666666    0.3369175633333333    0.6254681647940075 C
   0.4229390666666667    0.6702508966666667    0.6254681647940075 C
   0.7562724000000000    0.0035842300000000    0.6254681647940075 C
   0.7562723999999998    0.3369175633333333    0.6254681647940075 C
   0.7562724000000000    0.6702508966666667    0.6254681647940075 C
   0.1018945200000000    0.0174091133333333    0.6254681647940075 C
   0.1018945200000000    0.3507424466666667    0.6254681647940075 C
   0.1018945199999999    0.6840757800000001    0.6254681647940075 C
   0.4352278533333332    0.0174091133333333    0.6254681647940075 C
   0.4352278533333334    0.3507424466666667    0.6254681647940075 C
   0.4352278533333334    0.6840757800000001    0.6254681647940075 C
   0.7685611866666666    0.0174091133333333    0.6254681647940075 C
   0.7685611866666667    0.3507424466666667    0.6254681647940075 C
   0.7685611866666664    0.6840757800000001    0.6254681647940075 C
   0.1141833066666667    0.0312340000000000    0.6254681647940075 C
   0.1141833066666667    0.3645673333333333    0.6254681647940075 C
   0.1141833066666667    0.6979006666666666    0.6254681647940075 C
   0.4475166400000000    0.0312340000000000    0.6254681647940075 C
   0.4475166400000000    0.3645673333333333    0.6254681647940075 C
   0.4475166400000001    0.6979006666666666    0.6254681647940075 C
   0.7808499733333332    0.0312340000000000    0.6254681647940075 C
   0.7808499733333332    0.3645673333333333    0.6254681647940075 C
   0.7808499733333331    0.6979006666666666    0.6254681647940075 C
   0.1264720933333333    0.0450588833333333    0.6254681647940075 C
   0.1264720933333334    0.3783922166666666    0.6254681647940075 C
   0.1264720933333333    0.7117255499999999    0.6254681647940075 C
   0.4598054266666667    0.0450588833333333    0.6254681647940075 C
   0.4598054266666667    0.3783922166666666    0.6254681647940075 C
   0.4598054266666668    0.7117255499999999    0.6254681647940075 C
   0.7931387599999999    0.0450588833333333    0.6254681647940075 C
   0.7931387599999999    0.3783922166666666    0.6254681647940075 C
   0.7931387600000001    0.7117255499999999    0.6254681647940075 C
   0.1387608800000000    0.0588837700000000    0.6254681647940075 C
   0.1387608800000001    0.3922171033333334    0.6254681647940075 C
   0.1387608800000000    0.7255504366666667    0.6254681647940075 C
   0.4720942133333333    0.0588837700000000    0.6254681647940075 C
   0.4720942133333333    0.3922171033333334    0.6254681647940075 C
   0.4720942133333333    0.7255504366666667    0.6254681647940075 C
   0.8054275466666666    0.0588837700000000    0.6254681647940075 C
   0.8054275466666666    0.3922171033333334    0.6254681647940075 C
   0.8054275466666666    0.7255504366666667    0.6254681647940075 C
   0.1510496666666667    0.0727086533333333    0.6254681647940075 C
   0.1510496666666667    0.4060419866666667    0.6254681647940075 C
   0.1510496666666667    0.7393753200000001    0.6254681647940075 C
   0.4843830000000000    0.0727086533333333    0.6254681647940075 C
   0.4843830000000000    0.4060419866666667    0.6254681647940075 C
   0.4843830000000001    0.7393753200000001    0.6254681647940075 C
   0.8177163333333332    0.0727086533333333    0.6254681647940075 C
   0.8177163333333333    0.4060419866666667    0.6254681647940075 C
   0.8177163333333330    0.7393753200000001    0.6254681647940075 C
   0.1633384533333334    0.0865335366666667    0.6254681647940075 C
   0.1633384533333334    0.4198668700000000    0.6254681647940075 C
   0.1633384533333334    0.7532002033333335    0.6254681647940075 C
   0.4966717866666667    0.0865335366666667    0.6254681647940075 C
   0.4966717866666665    0.4198668700000000    0.6254681647940075 C
   0.4966717866666667    0.7532002033333335    0.6254681647940075 C
   0.8300051199999999    0.0865335366666667    0.6254681647940075 C
   0.8300051199999999    0.4198668700000000    0.6254681647940075 C
   0.8300051199999998    0.7532002033333335    0.6254681647940075 C
   0.1756272400000000    0.1003584233333333    0.6254681647940075 C
   0.1756272400000000    0.4336917566666668    0.6254681647940075 C
   0.1756272400000001    0.7670250900000000    0.6254681647940075 C
   0.5089605733333333    0.1003584233333333    0.6254681647940075 C
   0.5089605733333333    0.4336917566666668    0.6254681647940075 C
   0.5089605733333334    0.7670250900000000    0.6254681647940075 C
   0.8422939066666666    0.1003584233333333    0.6254681647940075 C
   0.8422939066666664    0.4336917566666668    0.6254681647940075 C
   0.8422939066666667    0.7670250900000000    0.6254681647940075 C
   0.1879160266666667    0.1141833066666667    0.6254681647940075 C
   0.1879160266666666    0.4475166400000000    0.6254681647940075 C
   0.1879160266666668    0.7808499733333333    0.6254681647940075 C
   0.5212493600000000    0.1141833066666667    0.6254681647940075 C
   0.5212493599999999    0.4475166400000000    0.6254681647940075 C
   0.5212493600000001    0.7808499733333333    0.6254681647940075 C
   0.8545826933333334    0.1141833066666667    0.6254681647940075 C
   0.8545826933333334    0.4475166400000000    0.6254681647940075 C
   0.8545826933333335    0.7808499733333333    0.6254681647940075 C
   0.2002048133333334    0.1280081933333333    0.6254681647940075 C
   0.2002048133333334    0.4613415266666666    0.6254681647940075 C
   0.2002048133333334    0.7946748600000000    0.6254681647940075 C
   0.5335381466666665    0.1280081933333333    0.6254681647940075 C
   0.5335381466666668    0.4613415266666666    0.6254681647940075 C
   0.5335381466666668    0.7946748600000000    0.6254681647940075 C
   0.8668714799999999    0.1280081933333333    0.6254681647940075 C
   0.8668714799999998    0.4613415266666666    0.6254681647940075 C
   0.8668714799999998    0.7946748600000000    0.6254681647940075 C
   0.2124935999999999    0.1418330766666667    0.6254681647940075 C
   0.2124936000000001    0.4751664100000000    0.6254681647940075 C
   0.2124936000000000    0.8084997433333333    0.6254681647940075 C
   0.5458269333333333    0.1418330766666667    0.6254681647940075 C
   0.5458269333333332    0.4751664100000000    0.6254681647940075 C
   0.5458269333333334    0.8084997433333333    0.6254681647940075 C
   0.8791602666666666    0.1418330766666667    0.6254681647940075 C
   0.8791602666666667    0.4751664100000000    0.6254681647940075 C
   0.8791602666666666    0.8084997433333333    0.6254681647940075 C
   0.2247823866666668    0.1556579633333333    0.6254681647940075 C
   0.2247823866666667    0.4889912966666667    0.6254681647940075 C
   0.2247823866666668    0.8223246299999999    0.6254681647940075 C
   0.5581157200000001    0.1556579633333333    0.6254681647940075 C
   0.5581157200000001    0.4889912966666667    0.6254681647940075 C
   0.5581157200000001    0.8223246299999999    0.6254681647940075 C
   0.8914490533333332    0.1556579633333333    0.6254681647940075 C
   0.8914490533333332    0.4889912966666667    0.6254681647940075 C
   0.8914490533333331    0.8223246299999999    0.6254681647940075 C
   0.2370711733333334    0.1694828466666667    0.6254681647940075 C
   0.2370711733333333    0.5028161800000001    0.6254681647940075 C
   0.2370711733333334    0.8361495133333333    0.6254681647940075 C
   0.5704045066666665    0.1694828466666667    0.6254681647940075 C
   0.5704045066666664    0.5028161800000001    0.6254681647940075 C
   0.5704045066666669    0.8361495133333333    0.6254681647940075 C
   0.9037378400000001    0.1694828466666667    0.6254681647940075 C
   0.9037378399999999    0.5028161800000001    0.6254681647940075 C
   0.9037378400000001    0.8361495133333333    0.6254681647940075 C
   0.2493599600000001    0.1833077333333333    0.6254681647940075 C
   0.2493599600000002    0.5166410666666666    0.6254681647940075 C
   0.2493599600000000    0.8499744000000001    0.6254681647940075 C
   0.5826932933333332    0.1833077333333333    0.6254681647940075 C
   0.5826932933333333    0.5166410666666666    0.6254681647940075 C
   0.5826932933333336    0.8499744000000001    0.6254681647940075 C
   0.9160266266666668    0.1833077333333333    0.6254681647940075 C
   0.9160266266666666    0.5166410666666666    0.6254681647940075 C
   0.9160266266666667    0.8499744000000001    0.6254681647940075 C
   0.2616487466666668    0.1971326166666667    0.6254681647940075 C
   0.2616487466666667    0.5304659500000000    0.6254681647940075 C
   0.2616487466666668    0.8637992833333334    0.6254681647940075 C
   0.5949820800000000    0.1971326166666667    0.6254681647940075 C
   0.5949820800000001    0.5304659500000000    0.6254681647940075 C
   0.5949820800000001    0.8637992833333334    0.6254681647940075 C
   0.9283154133333332    0.1971326166666667    0.6254681647940075 C
   0.9283154133333331    0.5304659500000000    0.6254681647940075 C
   0.9283154133333331    0.8637992833333334    0.6254681647940075 C
   0.2739375333333334    0.2109575000000000    0.6254681647940075 C
   0.2739375333333333    0.5442908333333333    0.6254681647940075 C
   0.2739375333333333    0.8776241666666668    0.6254681647940075 C
   0.6072708666666666    0.2109575000000000    0.6254681647940075 C
   0.6072708666666666    0.5442908333333333    0.6254681647940075 C
   0.6072708666666669    0.8776241666666668    0.6254681647940075 C
   0.9406042000000000    0.2109575000000000    0.6254681647940075 C
   0.9406042000000000    0.5442908333333333    0.6254681647940075 C
   0.9406042000000001    0.8776241666666668    0.6254681647940075 C
   0.2862263200000000    0.2247823866666667    0.6254681647940075 C
   0.2862263200000000    0.5581157200000000    0.6254681647940075 C
   0.2862263200000000    0.8914490533333334    0.6254681647940075 C
   0.6195596533333332    0.2247823866666667    0.6254681647940075 C
   0.6195596533333334    0.5581157200000000    0.6254681647940075 C
   0.6195596533333332    0.8914490533333334    0.6254681647940075 C
   0.9528929866666666    0.2247823866666667    0.6254681647940075 C
   0.9528929866666667    0.5581157200000000    0.6254681647940075 C
   0.9528929866666667    0.8914490533333334    0.6254681647940075 C
   0.2985151033333334    0.2386072700000000    0.6254681647940075 C
   0.2985151033333334    0.5719406033333333    0.6254681647940075 C
   0.2985151033333333    0.9052739366666668    0.6254681647940075 C
   0.6318484366666668    0.2386072700000000    0.6254681647940075 C
   0.6318484366666668    0.5719406033333333    0.6254681647940075 C
   0.6318484366666668    0.9052739366666668    0.6254681647940075 C
   0.9651817699999999    0.2386072700000000    0.6254681647940075 C
   0.9651817699999997    0.5719406033333333    0.6254681647940075 C
   0.9651817699999998    0.9052739366666668    0.6254681647940075 C
   0.3108038900000000    0.2524321566666666    0.6254681647940075 C
   0.3108038900000001    0.5857654900000000    0.6254681647940075 C
   0.3108038900000000    0.9190988233333333    0.6254681647940075 C
   0.6441372233333332    0.2524321566666666    0.6254681647940075 C
   0.6441372233333333    0.5857654900000000    0.6254681647940075 C
   0.6441372233333335    0.9190988233333333    0.6254681647940075 C
   0.9774705566666667    0.2524321566666666    0.6254681647940075 C
   0.9774705566666668    0.5857654900000000    0.6254681647940075 C
   0.9774705566666667    0.9190988233333333    0.6254681647940075 C
   0.3230926766666666    0.2662570399999999    0.6254681647940075 C
   0.3230926766666667    0.5995903733333333    0.6254681647940075 C
   0.3230926766666667    0.9329237066666666    0.6254681647940075 C
   0.6564260100000000    0.2662570399999999    0.6254681647940075 C
   0.6564260100000000    0.5995903733333333    0.6254681647940075 C
   0.6564260099999999    0.9329237066666666    0.6254681647940075 C
   0.9897593433333333    0.2662570399999999    0.6254681647940075 C
   0.9897593433333332    0.5995903733333333    0.6254681647940075 C
   0.9897593433333329    0.9329237066666666    0.6254681647940075 C
   0.0020481300000000    0.2800819266666667    0.6254681647940075 C
   0.0020481300000000    0.6134152600000000    0.6254681647940075 C
   0.0020481300000000    0.9467485933333334    0.6254681647940075 C
   0.3353814633333334    0.2800819266666667    0.6254681647940075 C
   0.3353814633333332    0.6134152600000000    0.6254681647940075 C
   0.3353814633333332    0.9467485933333334    0.6254681647940075 C
   0.6687147966666666    0.2800819266666667    0.6254681647940075 C
   0.6687147966666664    0.6134152600000000    0.6254681647940075 C
   0.6687147966666666    0.9467485933333334    0.6254681647940075 C
   0.1280081933333334    0.0051203266666667    0.6254681647940075 C
   0.1280081933333334    0.3384536600000000    0.6254681647940075 C
   0.1280081933333333    0.6717869933333334    0.6254681647940075 C
   0.4613415266666667    0.0051203266666667    0.6254681647940075 C
   0.4613415266666667    0.3384536600000000    0.6254681647940075 C
   0.4613415266666667    0.6717869933333334    0.6254681647940075 C
   0.7946748600000000    0.0051203266666667    0.6254681647940075 C
   0.7946748599999999    0.3384536600000000    0.6254681647940075 C
   0.7946748600000000    0.6717869933333334    0.6254681647940075 C
   0.1402969800000000    0.0189452133333333    0.6254681647940075 C
   0.1402969800000001    0.3522785466666666    0.6254681647940075 C
   0.1402969800000000    0.6856118800000001    0.6254681647940075 C
   0.4736303133333333    0.0189452133333333    0.6254681647940075 C
   0.4736303133333334    0.3522785466666666    0.6254681647940075 C
   0.4736303133333332    0.6856118800000001    0.6254681647940075 C
   0.8069636466666664    0.0189452133333333    0.6254681647940075 C
   0.8069636466666665    0.3522785466666666    0.6254681647940075 C
   0.8069636466666666    0.6856118800000001    0.6254681647940075 C
   0.1525857666666667    0.0327700966666667    0.6254681647940075 C
   0.1525857666666667    0.3661034300000000    0.6254681647940075 C
   0.1525857666666668    0.6994367633333333    0.6254681647940075 C
   0.4859191000000000    0.0327700966666667    0.6254681647940075 C
   0.4859191000000000    0.3661034300000000    0.6254681647940075 C
   0.4859191000000000    0.6994367633333333    0.6254681647940075 C
   0.8192524333333334    0.0327700966666667    0.6254681647940075 C
   0.8192524333333332    0.3661034300000000    0.6254681647940075 C
   0.8192524333333334    0.6994367633333333    0.6254681647940075 C
   0.1648745533333334    0.0465949833333333    0.6254681647940075 C
   0.1648745533333333    0.3799283166666666    0.6254681647940075 C
   0.1648745533333333    0.7132616500000001    0.6254681647940075 C
   0.4982078866666667    0.0465949833333333    0.6254681647940075 C
   0.4982078866666668    0.3799283166666666    0.6254681647940075 C
   0.4982078866666667    0.7132616500000001    0.6254681647940075 C
   0.8315412199999999    0.0465949833333333    0.6254681647940075 C
   0.8315412199999999    0.3799283166666666    0.6254681647940075 C
   0.8315412199999997    0.7132616500000001    0.6254681647940075 C
   0.1771633400000000    0.0604198666666667    0.6254681647940075 C
   0.1771633400000000    0.3937532000000000    0.6254681647940075 C
   0.1771633400000000    0.7270865333333334    0.6254681647940075 C
   0.5104966733333333    0.0604198666666667    0.6254681647940075 C
   0.5104966733333333    0.3937532000000000    0.6254681647940075 C
   0.5104966733333333    0.7270865333333334    0.6254681647940075 C
   0.8438300066666666    0.0604198666666667    0.6254681647940075 C
   0.8438300066666663    0.3937532000000000    0.6254681647940075 C
   0.8438300066666669    0.7270865333333334    0.6254681647940075 C
   0.1894521233333333    0.0742447500000000    0.6254681647940075 C
   0.1894521233333333    0.4075780833333333    0.6254681647940075 C
   0.1894521233333334    0.7409114166666666    0.6254681647940075 C
   0.5227854566666666    0.0742447500000000    0.6254681647940075 C
   0.5227854566666665    0.4075780833333333    0.6254681647940075 C
   0.5227854566666668    0.7409114166666666    0.6254681647940075 C
   0.8561187899999999    0.0742447500000000    0.6254681647940075 C
   0.8561187899999997    0.4075780833333333    0.6254681647940075 C
   0.8561187899999998    0.7409114166666666    0.6254681647940075 C
   0.2017409100000000    0.0880696366666667    0.6254681647940075 C
   0.2017409099999999    0.4214029700000000    0.6254681647940075 C
   0.2017409100000001    0.7547363033333334    0.6254681647940075 C
   0.5350742433333333    0.0880696366666667    0.6254681647940075 C
   0.5350742433333333    0.4214029700000000    0.6254681647940075 C
   0.5350742433333334    0.7547363033333334    0.6254681647940075 C
   0.8684075766666666    0.0880696366666667    0.6254681647940075 C
   0.8684075766666666    0.4214029700000000    0.6254681647940075 C
   0.8684075766666666    0.7547363033333334    0.6254681647940075 C
   0.2140296966666667    0.1018945200000000    0.6254681647940075 C
   0.2140296966666667    0.4352278533333334    0.6254681647940075 C
   0.2140296966666668    0.7685611866666667    0.6254681647940075 C
   0.5473630300000000    0.1018945200000000    0.6254681647940075 C
   0.5473630300000000    0.4352278533333334    0.6254681647940075 C
   0.5473630300000001    0.7685611866666667    0.6254681647940075 C
   0.8806963633333331    0.1018945200000000    0.6254681647940075 C
   0.8806963633333332    0.4352278533333334    0.6254681647940075 C
   0.8806963633333331    0.7685611866666667    0.6254681647940075 C
   0.2263184833333333    0.1157194066666667    0.6254681647940075 C
   0.2263184833333333    0.4490527400000000    0.6254681647940075 C
   0.2263184833333333    0.7823860733333333    0.6254681647940075 C
   0.5596518166666666    0.1157194066666667    0.6254681647940075 C
   0.5596518166666666    0.4490527400000000    0.6254681647940075 C
   0.5596518166666666    0.7823860733333333    0.6254681647940075 C
   0.8929851499999999    0.1157194066666667    0.6254681647940075 C
   0.8929851500000001    0.4490527400000000    0.6254681647940075 C
   0.8929851499999997    0.7823860733333333    0.6254681647940075 C
   0.2386072700000001    0.1295442900000000    0.6254681647940075 C
   0.2386072700000001    0.4628776233333333    0.6254681647940075 C
   0.2386072700000001    0.7962109566666666    0.6254681647940075 C
   0.5719406033333331    0.1295442900000000    0.6254681647940075 C
   0.5719406033333333    0.4628776233333333    0.6254681647940075 C
   0.5719406033333335    0.7962109566666666    0.6254681647940075 C
   0.9052739366666667    0.1295442900000000    0.6254681647940075 C
   0.9052739366666668    0.4628776233333333    0.6254681647940075 C
   0.9052739366666669    0.7962109566666666    0.6254681647940075 C
   0.2508960566666667    0.1433691766666667    0.6254681647940075 C
   0.2508960566666666    0.4767025100000000    0.6254681647940075 C
   0.2508960566666668    0.8100358433333333    0.6254681647940075 C
   0.5842293900000000    0.1433691766666667    0.6254681647940075 C
   0.5842293900000000    0.4767025100000000    0.6254681647940075 C
   0.5842293900000000    0.8100358433333333    0.6254681647940075 C
   0.9175627233333332    0.1433691766666667    0.6254681647940075 C
   0.9175627233333332    0.4767025100000000    0.6254681647940075 C
   0.9175627233333332    0.8100358433333333    0.6254681647940075 C
   0.2631848433333334    0.1571940600000000    0.6254681647940075 C
   0.2631848433333334    0.4905273933333333    0.6254681647940075 C
   0.2631848433333335    0.8238607266666667    0.6254681647940075 C
   0.5965181766666668    0.1571940600000000    0.6254681647940075 C
   0.5965181766666668    0.4905273933333333    0.6254681647940075 C
   0.5965181766666667    0.8238607266666667    0.6254681647940075 C
   0.9298515099999999    0.1571940600000000    0.6254681647940075 C
   0.9298515100000000    0.4905273933333333    0.6254681647940075 C
   0.9298515099999998    0.8238607266666667    0.6254681647940075 C
   0.2754736300000000    0.1710189466666666    0.6254681647940075 C
   0.2754736300000000    0.5043522800000000    0.6254681647940075 C
   0.2754736300000000    0.8376856133333334    0.6254681647940075 C
   0.6088069633333333    0.1710189466666666    0.6254681647940075 C
   0.6088069633333333    0.5043522800000000    0.6254681647940075 C
   0.6088069633333334    0.8376856133333334    0.6254681647940075 C
   0.9421402966666667    0.1710189466666666    0.6254681647940075 C
   0.9421402966666663    0.5043522800000000    0.6254681647940075 C
   0.9421402966666664    0.8376856133333334    0.6254681647940075 C
   0.2877624166666666    0.1848438300000000    0.6254681647940075 C
   0.2877624166666668    0.5181771633333334    0.6254681647940075 C
   0.2877624166666668    0.8515104966666667    0.6254681647940075 C
   0.6210957499999998    0.1848438300000000    0.6254681647940075 C
   0.6210957499999998    0.5181771633333334    0.6254681647940075 C
   0.6210957500000003    0.8515104966666667    0.6254681647940075 C
   0.9544290833333334    0.1848438300000000    0.6254681647940075 C
   0.9544290833333334    0.5181771633333334    0.6254681647940075 C
   0.9544290833333335    0.8515104966666667    0.6254681647940075 C
   0.3000512033333333    0.1986687133333333    0.6254681647940075 C
   0.3000512033333333    0.5320020466666667    0.6254681647940075 C
   0.3000512033333334    0.8653353800000000    0.6254681647940075 C
   0.6333845366666667    0.1986687133333333    0.6254681647940075 C
   0.6333845366666667    0.5320020466666667    0.6254681647940075 C
   0.6333845366666667    0.8653353800000000    0.6254681647940075 C
   0.9667178700000001    0.1986687133333333    0.6254681647940075 C
   0.9667178699999999    0.5320020466666667    0.6254681647940075 C
   0.9667178699999998    0.8653353800000000    0.6254681647940075 C
   0.3123399900000001    0.2124936000000000    0.6254681647940075 C
   0.3123399900000002    0.5458269333333333    0.6254681647940075 C
   0.3123399900000002    0.8791602666666667    0.6254681647940075 C
   0.6456733233333335    0.2124936000000000    0.6254681647940075 C
   0.6456733233333334    0.5458269333333333    0.6254681647940075 C
   0.6456733233333334    0.8791602666666667    0.6254681647940075 C
   0.9790066566666668    0.2124936000000000    0.6254681647940075 C
   0.9790066566666665    0.5458269333333333    0.6254681647940075 C
   0.9790066566666666    0.8791602666666667    0.6254681647940075 C
   0.3246287766666667    0.2263184833333333    0.6254681647940075 C
   0.3246287766666667    0.5596518166666666    0.6254681647940075 C
   0.3246287766666667    0.8929851500000000    0.6254681647940075 C
   0.6579621099999999    0.2263184833333333    0.6254681647940075 C
   0.6579621099999998    0.5596518166666666    0.6254681647940075 C
   0.6579621100000002    0.8929851500000000    0.6254681647940075 C
   0.9912954433333332    0.2263184833333333    0.6254681647940075 C
   0.9912954433333333    0.5596518166666666    0.6254681647940075 C
   0.9912954433333332    0.8929851500000000    0.6254681647940075 C
   0.0035842300000000    0.2401433700000000    0.6254681647940075 C
   0.0035842300000001    0.5734767033333333    0.6254681647940075 C
   0.0035842300000000    0.9068100366666667    0.6254681647940075 C
   0.3369175633333333    0.2401433700000000    0.6254681647940075 C
   0.3369175633333333    0.5734767033333333    0.6254681647940075 C
   0.3369175633333332    0.9068100366666667    0.6254681647940075 C
   0.6702508966666665    0.2401433700000000    0.6254681647940075 C
   0.6702508966666667    0.5734767033333333    0.6254681647940075 C
   0.6702508966666665    0.9068100366666667    0.6254681647940075 C
   0.1664106500000000    0.0066564266666667    0.6254681647940075 C
   0.1664106500000000    0.3399897600000000    0.6254681647940075 C
   0.1664106500000000    0.6733230933333333    0.6254681647940075 C
   0.4997439833333333    0.0066564266666667    0.6254681647940075 C
   0.4997439833333333    0.3399897600000000    0.6254681647940075 C
   0.4997439833333335    0.6733230933333333    0.6254681647940075 C
   0.8330773166666665    0.0066564266666667    0.6254681647940075 C
   0.8330773166666664    0.3399897600000000    0.6254681647940075 C
   0.8330773166666665    0.6733230933333333    0.6254681647940075 C
   0.1786994366666667    0.0204813100000000    0.6254681647940075 C
   0.1786994366666667    0.3538146433333334    0.6254681647940075 C
   0.1786994366666667    0.6871479766666668    0.6254681647940075 C
   0.5120327699999998    0.0204813100000000    0.6254681647940075 C
   0.5120327700000000    0.3538146433333334    0.6254681647940075 C
   0.5120327699999998    0.6871479766666668    0.6254681647940075 C
   0.8453661033333331    0.0204813100000000    0.6254681647940075 C
   0.8453661033333332    0.3538146433333334    0.6254681647940075 C
   0.8453661033333332    0.6871479766666668    0.6254681647940075 C
   0.1909882233333333    0.0343061966666667    0.6254681647940075 C
   0.1909882233333334    0.3676395300000000    0.6254681647940075 C
   0.1909882233333334    0.7009728633333333    0.6254681647940075 C
   0.5243215566666666    0.0343061966666667    0.6254681647940075 C
   0.5243215566666667    0.3676395300000000    0.6254681647940075 C
   0.5243215566666665    0.7009728633333333    0.6254681647940075 C
   0.8576548899999998    0.0343061966666667    0.6254681647940075 C
   0.8576548899999998    0.3676395300000000    0.6254681647940075 C
   0.8576548899999996    0.7009728633333333    0.6254681647940075 C
   0.2032770100000000    0.0481310800000000    0.6254681647940075 C
   0.2032770100000001    0.3814644133333333    0.6254681647940075 C
   0.2032770100000001    0.7147977466666666    0.6254681647940075 C
   0.5366103433333331    0.0481310800000000    0.6254681647940075 C
   0.5366103433333334    0.3814644133333333    0.6254681647940075 C
   0.5366103433333335    0.7147977466666666    0.6254681647940075 C
   0.8699436766666666    0.0481310800000000    0.6254681647940075 C
   0.8699436766666667    0.3814644133333333    0.6254681647940075 C
   0.8699436766666666    0.7147977466666666    0.6254681647940075 C
   0.2155657966666667    0.0619559666666667    0.6254681647940075 C
   0.2155657966666667    0.3952893000000000    0.6254681647940075 C
   0.2155657966666666    0.7286226333333334    0.6254681647940075 C
   0.5488991300000000    0.0619559666666667    0.6254681647940075 C
   0.5488991300000000    0.3952893000000000    0.6254681647940075 C
   0.5488991300000001    0.7286226333333334    0.6254681647940075 C
   0.8822324633333333    0.0619559666666667    0.6254681647940075 C
   0.8822324633333334    0.3952893000000000    0.6254681647940075 C
   0.8822324633333334    0.7286226333333334    0.6254681647940075 C
   0.2278545833333334    0.0757808500000000    0.6254681647940075 C
   0.2278545833333333    0.4091141833333334    0.6254681647940075 C
   0.2278545833333334    0.7424475166666668    0.6254681647940075 C
   0.5611879166666667    0.0757808500000000    0.6254681647940075 C
   0.5611879166666667    0.4091141833333334    0.6254681647940075 C
   0.5611879166666667    0.7424475166666668    0.6254681647940075 C
   0.8945212499999999    0.0757808500000000    0.6254681647940075 C
   0.8945212500000000    0.4091141833333334    0.6254681647940075 C
   0.8945212500000000    0.7424475166666668    0.6254681647940075 C
   0.2401433700000000    0.0896057333333333    0.6254681647940075 C
   0.2401433700000001    0.4229390666666666    0.6254681647940075 C
   0.2401433700000001    0.7562724000000001    0.6254681647940075 C
   0.5734767033333334    0.0896057333333333    0.6254681647940075 C
   0.5734767033333333    0.4229390666666666    0.6254681647940075 C
   0.5734767033333333    0.7562724000000001    0.6254681647940075 C
   0.9068100366666666    0.0896057333333333    0.6254681647940075 C
   0.9068100366666664    0.4229390666666666    0.6254681647940075 C
   0.9068100366666666    0.7562724000000001    0.6254681647940075 C
   0.2524321566666667    0.1034306200000000    0.6254681647940075 C
   0.2524321566666667    0.4367639533333333    0.6254681647940075 C
   0.2524321566666666    0.7700972866666667    0.6254681647940075 C
   0.5857654900000000    0.1034306200000000    0.6254681647940075 C
   0.5857654900000001    0.4367639533333333    0.6254681647940075 C
   0.5857654900000001    0.7700972866666667    0.6254681647940075 C
   0.9190988233333333    0.1034306200000000    0.6254681647940075 C
   0.9190988233333335    0.4367639533333333    0.6254681647940075 C
   0.9190988233333333    0.7700972866666667    0.6254681647940075 C
   0.2647209433333334    0.1172555033333333    0.6254681647940075 C
   0.2647209433333334    0.4505888366666668    0.6254681647940075 C
   0.2647209433333335    0.7839221700000000    0.6254681647940075 C
   0.5980542766666667    0.1172555033333333    0.6254681647940075 C
   0.5980542766666666    0.4505888366666668    0.6254681647940075 C
   0.5980542766666669    0.7839221700000000    0.6254681647940075 C
   0.9313876100000000    0.1172555033333333    0.6254681647940075 C
   0.9313876100000000    0.4505888366666668    0.6254681647940075 C
   0.9313876100000003    0.7839221700000000    0.6254681647940075 C
   0.2770097300000001    0.1310803900000000    0.6254681647940075 C
   0.2770097300000001    0.4644137233333334    0.6254681647940075 C
   0.2770097299999999    0.7977470566666668    0.6254681647940075 C
   0.6103430633333334    0.1310803900000000    0.6254681647940075 C
   0.6103430633333333    0.4644137233333334    0.6254681647940075 C
   0.6103430633333335    0.7977470566666668    0.6254681647940075 C
   0.9436763966666667    0.1310803900000000    0.6254681647940075 C
   0.9436763966666665    0.4644137233333334    0.6254681647940075 C
   0.9436763966666666    0.7977470566666668    0.6254681647940075 C
   0.2892985166666667    0.1449052733333333    0.6254681647940075 C
   0.2892985166666668    0.4782386066666666    0.6254681647940075 C
   0.2892985166666668    0.8115719400000000    0.6254681647940075 C
   0.6226318500000001    0.1449052733333333    0.6254681647940075 C
   0.6226318500000000    0.4782386066666666    0.6254681647940075 C
   0.6226318499999999    0.8115719400000000    0.6254681647940075 C
   0.9559651833333331    0.1449052733333333    0.6254681647940075 C
   0.9559651833333330    0.4782386066666666    0.6254681647940075 C
   0.9559651833333334    0.8115719400000000    0.6254681647940075 C
   0.3015873000000000    0.1587301600000000    0.6254681647940075 C
   0.3015872999999999    0.4920634933333334    0.6254681647940075 C
   0.3015873000000001    0.8253968266666666    0.6254681647940075 C
   0.6349206333333334    0.1587301600000000    0.6254681647940075 C
   0.6349206333333334    0.4920634933333334    0.6254681647940075 C
   0.6349206333333333    0.8253968266666666    0.6254681647940075 C
   0.9682539666666666    0.1587301600000000    0.6254681647940075 C
   0.9682539666666666    0.4920634933333334    0.6254681647940075 C
   0.9682539666666665    0.8253968266666666    0.6254681647940075 C
   0.3138760866666667    0.1725550433333334    0.6254681647940075 C
   0.3138760866666668    0.5058883766666666    0.6254681647940075 C
   0.3138760866666668    0.8392217099999999    0.6254681647940075 C
   0.6472094200000000    0.1725550433333334    0.6254681647940075 C
   0.6472094200000000    0.5058883766666666    0.6254681647940075 C
   0.6472094200000003    0.8392217099999999    0.6254681647940075 C
   0.9805427533333333    0.1725550433333334    0.6254681647940075 C
   0.9805427533333334    0.5058883766666666    0.6254681647940075 C
   0.9805427533333331    0.8392217099999999    0.6254681647940075 C
   0.3261648733333333    0.1863799266666667    0.6254681647940075 C
   0.3261648733333333    0.5197132600000000    0.6254681647940075 C
   0.3261648733333334    0.8530465933333334    0.6254681647940075 C
   0.6594982066666666    0.1863799266666667    0.6254681647940075 C
   0.6594982066666666    0.5197132600000000    0.6254681647940075 C
   0.6594982066666669    0.8530465933333334    0.6254681647940075 C
   0.9928315399999998    0.1863799266666667    0.6254681647940075 C
   0.9928315399999998    0.5197132600000000    0.6254681647940075 C
   0.9928315399999997    0.8530465933333334    0.6254681647940075 C
   0.0051203266666667    0.2002048133333333    0.6254681647940075 C
   0.0051203266666667    0.5335381466666665    0.6254681647940075 C
   0.0051203266666667    0.8668714800000001    0.6254681647940075 C
   0.3384536600000000    0.2002048133333333    0.6254681647940075 C
   0.3384536599999999    0.5335381466666665    0.6254681647940075 C
   0.3384536600000000    0.8668714800000001    0.6254681647940075 C
   0.6717869933333332    0.2002048133333333    0.6254681647940075 C
   0.6717869933333332    0.5335381466666665    0.6254681647940075 C
   0.6717869933333330    0.8668714800000001    0.6254681647940075 C
   0.2048131066666667    0.0081925233333333    0.6254681647940075 C
   0.2048131066666667    0.3415258566666667    0.6254681647940075 C
   0.2048131066666667    0.6748591900000001    0.6254681647940075 C
   0.5381464400000000    0.0081925233333333    0.6254681647940075 C
   0.5381464399999999    0.3415258566666667    0.6254681647940075 C
   0.5381464400000001    0.6748591900000001    0.6254681647940075 C
   0.8714797733333335    0.0081925233333333    0.6254681647940075 C
   0.8714797733333333    0.3415258566666667    0.6254681647940075 C
   0.8714797733333334    0.6748591900000001    0.6254681647940075 C
   0.2171018933333333    0.0220174100000000    0.6254681647940075 C
   0.2171018933333333    0.3553507433333333    0.6254681647940075 C
   0.2171018933333334    0.6886840766666668    0.6254681647940075 C
   0.5504352266666667    0.0220174100000000    0.6254681647940075 C
   0.5504352266666664    0.3553507433333333    0.6254681647940075 C
   0.5504352266666668    0.6886840766666668    0.6254681647940075 C
   0.8837685600000000    0.0220174100000000    0.6254681647940075 C
   0.8837685599999999    0.3553507433333333    0.6254681647940075 C
   0.8837685600000000    0.6886840766666668    0.6254681647940075 C
   0.2293906800000000    0.0358422933333333    0.6254681647940075 C
   0.2293906800000001    0.3691756266666667    0.6254681647940075 C
   0.2293906800000002    0.7025089600000000    0.6254681647940075 C
   0.5627240133333333    0.0358422933333333    0.6254681647940075 C
   0.5627240133333332    0.3691756266666667    0.6254681647940075 C
   0.5627240133333336    0.7025089600000000    0.6254681647940075 C
   0.8960573466666665    0.0358422933333333    0.6254681647940075 C
   0.8960573466666666    0.3691756266666667    0.6254681647940075 C
   0.8960573466666666    0.7025089600000000    0.6254681647940075 C
   0.2416794666666666    0.0496671800000000    0.6254681647940075 C
   0.2416794666666668    0.3830005133333333    0.6254681647940075 C
   0.2416794666666667    0.7163338466666668    0.6254681647940075 C
   0.5750128000000001    0.0496671800000000    0.6254681647940075 C
   0.5750128000000001    0.3830005133333333    0.6254681647940075 C
   0.5750128000000001    0.7163338466666668    0.6254681647940075 C
   0.9083461333333334    0.0496671800000000    0.6254681647940075 C
   0.9083461333333332    0.3830005133333333    0.6254681647940075 C
   0.9083461333333331    0.7163338466666668    0.6254681647940075 C
   0.2539682533333333    0.0634920633333333    0.6254681647940075 C
   0.2539682533333333    0.3968253966666667    0.6254681647940075 C
   0.2539682533333333    0.7301587300000001    0.6254681647940075 C
   0.5873015866666665    0.0634920633333333    0.6254681647940075 C
   0.5873015866666665    0.3968253966666667    0.6254681647940075 C
   0.5873015866666668    0.7301587300000001    0.6254681647940075 C
   0.9206349199999999    0.0634920633333333    0.6254681647940075 C
   0.9206349200000000    0.3968253966666667    0.6254681647940075 C
   0.9206349199999998    0.7301587300000001    0.6254681647940075 C
   0.2662570400000001    0.0773169466666667    0.6254681647940075 C
   0.2662570400000001    0.4106502800000000    0.6254681647940075 C
   0.2662570400000001    0.7439836133333334    0.6254681647940075 C
   0.5995903733333333    0.0773169466666667    0.6254681647940075 C
   0.5995903733333333    0.4106502800000000    0.6254681647940075 C
   0.5995903733333334    0.7439836133333334    0.6254681647940075 C
   0.9329237066666666    0.0773169466666667    0.6254681647940075 C
   0.9329237066666667    0.4106502800000000    0.6254681647940075 C
   0.9329237066666668    0.7439836133333334    0.6254681647940075 C
   0.2785458266666667    0.0911418333333333    0.6254681647940075 C
   0.2785458266666667    0.4244751666666667    0.6254681647940075 C
   0.2785458266666668    0.7578084999999999    0.6254681647940075 C
   0.6118791600000000    0.0911418333333333    0.6254681647940075 C
   0.6118791600000000    0.4244751666666667    0.6254681647940075 C
   0.6118791600000003    0.7578084999999999    0.6254681647940075 C
   0.9452124933333332    0.0911418333333333    0.6254681647940075 C
   0.9452124933333333    0.4244751666666667    0.6254681647940075 C
   0.9452124933333335    0.7578084999999999    0.6254681647940075 C
   0.2908346133333334    0.1049667166666667    0.6254681647940075 C
   0.2908346133333334    0.4383000500000001    0.6254681647940075 C
   0.2908346133333333    0.7716333833333334    0.6254681647940075 C
   0.6241679466666666    0.1049667166666667    0.6254681647940075 C
   0.6241679466666666    0.4383000500000001    0.6254681647940075 C
   0.6241679466666669    0.7716333833333334    0.6254681647940075 C
   0.9575012800000000    0.1049667166666667    0.6254681647940075 C
   0.9575012800000000    0.4383000500000001    0.6254681647940075 C
   0.9575012799999999    0.7716333833333334    0.6254681647940075 C
   0.3031234000000000    0.1187916033333333    0.6254681647940075 C
   0.3031233999999999    0.4521249366666667    0.6254681647940075 C
   0.3031234000000000    0.7854582700000000    0.6254681647940075 C
   0.6364567333333332    0.1187916033333333    0.6254681647940075 C
   0.6364567333333333    0.4521249366666667    0.6254681647940075 C
   0.6364567333333332    0.7854582700000000    0.6254681647940075 C
   0.9697900666666666    0.1187916033333333    0.6254681647940075 C
   0.9697900666666667    0.4521249366666667    0.6254681647940075 C
   0.9697900666666665    0.7854582700000000    0.6254681647940075 C
   0.3154121866666667    0.1326164866666666    0.6254681647940075 C
   0.3154121866666668    0.4659498200000000    0.6254681647940075 C
   0.3154121866666668    0.7992831533333333    0.6254681647940075 C
   0.6487455199999999    0.1326164866666666    0.6254681647940075 C
   0.6487455200000001    0.4659498200000000    0.6254681647940075 C
   0.6487455200000004    0.7992831533333333    0.6254681647940075 C
   0.9820788533333333    0.1326164866666666    0.6254681647940075 C
   0.9820788533333334    0.4659498200000000    0.6254681647940075 C
   0.9820788533333334    0.7992831533333333    0.6254681647940075 C
   0.3277009733333334    0.1464413733333333    0.6254681647940075 C
   0.3277009733333336    0.4797747066666667    0.6254681647940075 C
   0.3277009733333335    0.8131080399999999    0.6254681647940075 C
   0.6610343066666666    0.1464413733333333    0.6254681647940075 C
   0.6610343066666666    0.4797747066666667    0.6254681647940075 C
   0.6610343066666668    0.8131080399999999    0.6254681647940075 C
   0.9943676400000001    0.1464413733333333    0.6254681647940075 C
   0.9943676400000000    0.4797747066666667    0.6254681647940075 C
   0.9943676400000001    0.8131080399999999    0.6254681647940075 C
   0.0066564266666667    0.1602662566666667    0.6254681647940075 C
   0.0066564266666667    0.4935995900000000    0.6254681647940075 C
   0.0066564266666668    0.8269329233333332    0.6254681647940075 C
   0.3399897600000000    0.1602662566666667    0.6254681647940075 C
   0.3399897600000001    0.4935995900000000    0.6254681647940075 C
   0.3399897600000002    0.8269329233333332    0.6254681647940075 C
   0.6733230933333334    0.1602662566666667    0.6254681647940075 C
   0.6733230933333333    0.4935995900000000    0.6254681647940075 C
   0.6733230933333332    0.8269329233333332    0.6254681647940075 C
   0.2432155666666667    0.0097286233333333    0.6254681647940075 C
   0.2432155666666668    0.3430619566666667    0.6254681647940075 C
   0.2432155666666667    0.6763952900000000    0.6254681647940075 C
   0.5765488999999999    0.0097286233333333    0.6254681647940075 C
   0.5765488999999999    0.3430619566666667    0.6254681647940075 C
   0.5765489000000001    0.6763952900000000    0.6254681647940075 C
   0.9098822333333334    0.0097286233333333    0.6254681647940075 C
   0.9098822333333333    0.3430619566666667    0.6254681647940075 C
   0.9098822333333331    0.6763952900000000    0.6254681647940075 C
   0.2555043533333333    0.0235535066666667    0.6254681647940075 C
   0.2555043533333333    0.3568868400000000    0.6254681647940075 C
   0.2555043533333333    0.6902201733333335    0.6254681647940075 C
   0.5888376866666667    0.0235535066666667    0.6254681647940075 C
   0.5888376866666667    0.3568868400000000    0.6254681647940075 C
   0.5888376866666668    0.6902201733333335    0.6254681647940075 C
   0.9221710199999998    0.0235535066666667    0.6254681647940075 C
   0.9221710200000000    0.3568868400000000    0.6254681647940075 C
   0.9221710199999997    0.6902201733333335    0.6254681647940075 C
   0.2677931400000000    0.0373783933333333    0.6254681647940075 C
   0.2677931400000001    0.3707117266666667    0.6254681647940075 C
   0.2677931400000000    0.7040450600000000    0.6254681647940075 C
   0.6011264733333332    0.0373783933333333    0.6254681647940075 C
   0.6011264733333335    0.3707117266666667    0.6254681647940075 C
   0.6011264733333334    0.7040450600000000    0.6254681647940075 C
   0.9344598066666664    0.0373783933333333    0.6254681647940075 C
   0.9344598066666664    0.3707117266666667    0.6254681647940075 C
   0.9344598066666665    0.7040450600000000    0.6254681647940075 C
   0.2800819266666667    0.0512032766666667    0.6254681647940075 C
   0.2800819266666667    0.3845366100000000    0.6254681647940075 C
   0.2800819266666666    0.7178699433333333    0.6254681647940075 C
   0.6134152600000000    0.0512032766666667    0.6254681647940075 C
   0.6134152600000000    0.3845366100000000    0.6254681647940075 C
   0.6134152600000002    0.7178699433333333    0.6254681647940075 C
   0.9467485933333333    0.0512032766666667    0.6254681647940075 C
   0.9467485933333333    0.3845366100000000    0.6254681647940075 C
   0.9467485933333332    0.7178699433333333    0.6254681647940075 C
   0.2923707133333333    0.0650281633333333    0.6254681647940075 C
   0.2923707133333334    0.3983614966666666    0.6254681647940075 C
   0.2923707133333333    0.7316948300000000    0.6254681647940075 C
   0.6257040466666666    0.0650281633333333    0.6254681647940075 C
   0.6257040466666665    0.3983614966666666    0.6254681647940075 C
   0.6257040466666669    0.7316948300000000    0.6254681647940075 C
   0.9590373800000001    0.0650281633333333    0.6254681647940075 C
   0.9590373799999999    0.3983614966666666    0.6254681647940075 C
   0.9590373799999998    0.7316948300000000    0.6254681647940075 C
   0.3046594966666667    0.0788530466666667    0.6254681647940075 C
   0.3046594966666668    0.4121863800000000    0.6254681647940075 C
   0.3046594966666667    0.7455197133333333    0.6254681647940075 C
   0.6379928300000001    0.0788530466666667    0.6254681647940075 C
   0.6379928300000001    0.4121863800000000    0.6254681647940075 C
   0.6379928300000001    0.7455197133333333    0.6254681647940075 C
   0.9713261633333334    0.0788530466666667    0.6254681647940075 C
   0.9713261633333332    0.4121863800000000    0.6254681647940075 C
   0.9713261633333333    0.7455197133333333    0.6254681647940075 C
   0.3169482833333333    0.0926779300000000    0.6254681647940075 C
   0.3169482833333335    0.4260112633333333    0.6254681647940075 C
   0.3169482833333334    0.7593445966666666    0.6254681647940075 C
   0.6502816166666666    0.0926779300000000    0.6254681647940075 C
   0.6502816166666666    0.4260112633333333    0.6254681647940075 C
   0.6502816166666668    0.7593445966666666    0.6254681647940075 C
   0.9836149499999999    0.0926779300000000    0.6254681647940075 C
   0.9836149500000002    0.4260112633333333    0.6254681647940075 C
   0.9836149500000001    0.7593445966666666    0.6254681647940075 C
   0.3292370700000000    0.1065028166666667    0.6254681647940075 C
   0.3292370700000001    0.4398361500000000    0.6254681647940075 C
   0.3292370700000000    0.7731694833333334    0.6254681647940075 C
   0.6625704033333334    0.1065028166666667    0.6254681647940075 C
   0.6625704033333335    0.4398361500000000    0.6254681647940075 C
   0.6625704033333336    0.7731694833333334    0.6254681647940075 C
   0.9959037366666668    0.1065028166666667    0.6254681647940075 C
   0.9959037366666669    0.4398361500000000    0.6254681647940075 C
   0.9959037366666669    0.7731694833333334    0.6254681647940075 C
   0.0081925233333333    0.1203277000000000    0.6254681647940075 C
   0.0081925233333333    0.4536610333333334    0.6254681647940075 C
   0.0081925233333335    0.7869943666666667    0.6254681647940075 C
   0.3415258566666666    0.1203277000000000    0.6254681647940075 C
   0.3415258566666665    0.4536610333333334    0.6254681647940075 C
   0.3415258566666667    0.7869943666666667    0.6254681647940075 C
   0.6748591899999998    0.1203277000000000    0.6254681647940075 C
   0.6748591899999998    0.4536610333333334    0.6254681647940075 C
   0.6748591899999999    0.7869943666666667    0.6254681647940075 C
   0.2816180233333334    0.0112647200000000    0.6254681647940075 C
   0.2816180233333335    0.3445980533333333    0.6254681647940075 C
   0.2816180233333335    0.6779313866666667    0.6254681647940075 C
   0.6149513566666664    0.0112647200000000    0.6254681647940075 C
   0.6149513566666664    0.3445980533333333    0.6254681647940075 C
   0.6149513566666668    0.6779313866666667    0.6254681647940075 C
   0.9482846900000000    0.0112647200000000    0.6254681647940075 C
   0.9482846899999999    0.3445980533333333    0.6254681647940075 C
   0.9482846899999997    0.6779313866666667    0.6254681647940075 C
   0.2939068100000000    0.0250896066666667    0.6254681647940075 C
   0.2939068100000000    0.3584229400000000    0.6254681647940075 C
   0.2939068100000001    0.6917562733333334    0.6254681647940075 C
   0.6272401433333334    0.0250896066666667    0.6254681647940075 C
   0.6272401433333332    0.3584229400000000    0.6254681647940075 C
   0.6272401433333333    0.6917562733333334    0.6254681647940075 C
   0.9605734766666667    0.0250896066666667    0.6254681647940075 C
   0.9605734766666665    0.3584229400000000    0.6254681647940075 C
   0.9605734766666668    0.6917562733333334    0.6254681647940075 C
   0.3061955966666667    0.0389144900000000    0.6254681647940075 C
   0.3061955966666667    0.3722478233333333    0.6254681647940075 C
   0.3061955966666665    0.7055811566666668    0.6254681647940075 C
   0.6395289300000000    0.0389144900000000    0.6254681647940075 C
   0.6395289300000001    0.3722478233333333    0.6254681647940075 C
   0.6395289300000001    0.7055811566666668    0.6254681647940075 C
   0.9728622633333333    0.0389144900000000    0.6254681647940075 C
   0.9728622633333333    0.3722478233333333    0.6254681647940075 C
   0.9728622633333335    0.7055811566666668    0.6254681647940075 C
   0.3184843833333333    0.0527393766666667    0.6254681647940075 C
   0.3184843833333333    0.3860727100000000    0.6254681647940075 C
   0.3184843833333335    0.7194060433333334    0.6254681647940075 C
   0.6518177166666668    0.0527393766666667    0.6254681647940075 C
   0.6518177166666668    0.3860727100000000    0.6254681647940075 C
   0.6518177166666669    0.7194060433333334    0.6254681647940075 C
   0.9851510499999998    0.0527393766666667    0.6254681647940075 C
   0.9851510499999997    0.3860727100000000    0.6254681647940075 C
   0.9851510499999999    0.7194060433333334    0.6254681647940075 C
   0.3307731700000000    0.0665642600000000    0.6254681647940075 C
   0.3307731700000001    0.3998975933333333    0.6254681647940075 C
   0.3307731699999998    0.7332309266666668    0.6254681647940075 C
   0.6641065033333332    0.0665642600000000    0.6254681647940075 C
   0.6641065033333332    0.3998975933333333    0.6254681647940075 C
   0.6641065033333333    0.7332309266666668    0.6254681647940075 C
   0.9974398366666667    0.0665642600000000    0.6254681647940075 C
   0.9974398366666664    0.3998975933333333    0.6254681647940075 C
   0.9974398366666664    0.7332309266666668    0.6254681647940075 C
   0.0097286233333333    0.0803891433333333    0.6254681647940075 C
   0.0097286233333333    0.4137224766666667    0.6254681647940075 C
   0.0097286233333334    0.7470558100000001    0.6254681647940075 C
   0.3430619566666666    0.0803891433333333    0.6254681647940075 C
   0.3430619566666665    0.4137224766666667    0.6254681647940075 C
   0.3430619566666667    0.7470558100000001    0.6254681647940075 C
   0.6763952899999999    0.0803891433333333    0.6254681647940075 C
   0.6763952899999998    0.4137224766666667    0.6254681647940075 C
   0.6763952899999996    0.7470558100000001    0.6254681647940075 C
   0.3200204800000000    0.0128008200000000    0.6254681647940075 C
   0.3200204800000000    0.3461341533333334    0.6254681647940075 C
   0.3200204800000002    0.6794674866666666    0.6254681647940075 C
   0.6533538133333333    0.0128008200000000    0.6254681647940075 C
   0.6533538133333333    0.3461341533333334    0.6254681647940075 C
   0.6533538133333334    0.6794674866666666    0.6254681647940075 C
   0.9866871466666665    0.0128008200000000    0.6254681647940075 C
   0.9866871466666667    0.3461341533333334    0.6254681647940075 C
   0.9866871466666668    0.6794674866666666    0.6254681647940075 C
   0.3323092666666667    0.0266257033333333    0.6254681647940075 C
   0.3323092666666669    0.3599590366666667    0.6254681647940075 C
   0.3323092666666669    0.6932923699999999    0.6254681647940075 C
   0.6656426000000001    0.0266257033333333    0.6254681647940075 C
   0.6656426000000001    0.3599590366666667    0.6254681647940075 C
   0.6656426000000003    0.6932923699999999    0.6254681647940075 C
   0.9989759333333333    0.0266257033333333    0.6254681647940075 C
   0.9989759333333333    0.3599590366666667    0.6254681647940075 C
   0.9989759333333336    0.6932923699999999    0.6254681647940075 C
   0.0112647200000000    0.0404505900000000    0.6254681647940075 C
   0.0112647200000000    0.3737839233333333    0.6254681647940075 C
   0.0112647200000000    0.7071172566666667    0.6254681647940075 C
   0.3445980533333332    0.0404505900000000    0.6254681647940075 C
   0.3445980533333332    0.3737839233333333    0.6254681647940075 C
   0.3445980533333334    0.7071172566666667    0.6254681647940075 C
   0.6779313866666666    0.0404505900000000    0.6254681647940075 C
   0.6779313866666665    0.3737839233333333    0.6254681647940075 C
   0.6779313866666664    0.7071172566666667    0.6254681647940075 C
   0.0271377366666667    0.2944188433333333    0.6254681647940075 C
   0.0271377366666667    0.6277521766666667    0.6254681647940075 C
   0.0271377366666669    0.9610855100000000    0.6254681647940075 C
   0.3604710699999999    0.2944188433333333    0.6254681647940075 C
   0.3604710699999999    0.6277521766666667    0.6254681647940075 C
   0.3604710700000000    0.9610855100000000    0.6254681647940075 C
   0.6938044033333330    0.2944188433333333    0.6254681647940075 C
   0.6938044033333333    0.6277521766666667    0.6254681647940075 C
   0.6938044033333336    0.9610855100000000    0.6254681647940075 C
   0.0394265233333333    0.3082437266666667    0.6254681647940075 C
   0.0394265233333334    0.6415770600000000    0.6254681647940075 C
   0.0394265233333335    0.9749103933333333    0.6254681647940075 C
   0.3727598566666667    0.3082437266666667    0.6254681647940075 C
   0.3727598566666667    0.6415770600000000    0.6254681647940075 C
   0.3727598566666667    0.9749103933333333    0.6254681647940075 C
   0.7060931899999999    0.3082437266666667    0.6254681647940075 C
   0.7060931899999999    0.6415770600000000    0.6254681647940075 C
   0.7060931900000000    0.9749103933333333    0.6254681647940075 C
   0.0517153100000000    0.3220686133333333    0.6254681647940075 C
   0.0517153100000000    0.6554019466666666    0.6254681647940075 C
   0.0517153100000002    0.9887352800000000    0.6254681647940075 C
   0.3850486433333333    0.3220686133333333    0.6254681647940075 C
   0.3850486433333333    0.6554019466666666    0.6254681647940075 C
   0.3850486433333333    0.9887352800000000    0.6254681647940075 C
   0.7183819766666666    0.3220686133333333    0.6254681647940075 C
   0.7183819766666666    0.6554019466666666    0.6254681647940075 C
   0.7183819766666665    0.9887352800000000    0.6254681647940075 C
   0.0286738366666667    0.2544802866666667    0.6254681647940075 C
   0.0286738366666667    0.5878136200000000    0.6254681647940075 C
   0.0286738366666668    0.9211469533333333    0.6254681647940075 C
   0.3620071699999999    0.2544802866666667    0.6254681647940075 C
   0.3620071700000000    0.5878136200000000    0.6254681647940075 C
   0.3620071700000000    0.9211469533333333    0.6254681647940075 C
   0.6953405033333332    0.2544802866666667    0.6254681647940075 C
   0.6953405033333331    0.5878136200000000    0.6254681647940075 C
   0.6953405033333332    0.9211469533333333    0.6254681647940075 C
   0.0409626200000000    0.2683051700000000    0.6254681647940075 C
   0.0409626200000000    0.6016385033333334    0.6254681647940075 C
   0.0409626200000000    0.9349718366666666    0.6254681647940075 C
   0.3742959533333333    0.2683051700000000    0.6254681647940075 C
   0.3742959533333332    0.6016385033333334    0.6254681647940075 C
   0.3742959533333333    0.9349718366666666    0.6254681647940075 C
   0.7076292866666667    0.2683051700000000    0.6254681647940075 C
   0.7076292866666666    0.6016385033333334    0.6254681647940075 C
   0.7076292866666665    0.9349718366666666    0.6254681647940075 C
   0.0532514066666667    0.2821300566666667    0.6254681647940075 C
   0.0532514066666666    0.6154633899999999    0.6254681647940075 C
   0.0532514066666667    0.9487967233333334    0.6254681647940075 C
   0.3865847400000000    0.2821300566666667    0.6254681647940075 C
   0.3865847400000000    0.6154633899999999    0.6254681647940075 C
   0.3865847400000001    0.9487967233333334    0.6254681647940075 C
   0.7199180733333334    0.2821300566666667    0.6254681647940075 C
   0.7199180733333335    0.6154633899999999    0.6254681647940075 C
   0.7199180733333332    0.9487967233333334    0.6254681647940075 C
   0.0655401933333334    0.2959549400000000    0.6254681647940075 C
   0.0655401933333334    0.6292882733333333    0.6254681647940075 C
   0.0655401933333334    0.9626216066666666    0.6254681647940075 C
   0.3988735266666666    0.2959549400000000    0.6254681647940075 C
   0.3988735266666666    0.6292882733333333    0.6254681647940075 C
   0.3988735266666666    0.9626216066666666    0.6254681647940075 C
   0.7322068599999998    0.2959549400000000    0.6254681647940075 C
   0.7322068599999999    0.6292882733333333    0.6254681647940075 C
   0.7322068600000000    0.9626216066666666    0.6254681647940075 C
   0.0778289800000000    0.3097798266666666    0.6254681647940075 C
   0.0778289800000000    0.6431131600000000    0.6254681647940075 C
   0.0778289800000000    0.9764464933333334    0.6254681647940075 C
   0.4111623133333332    0.3097798266666666    0.6254681647940075 C
   0.4111623133333333    0.6431131600000000    0.6254681647940075 C
   0.4111623133333334    0.9764464933333334    0.6254681647940075 C
   0.7444956466666665    0.3097798266666666    0.6254681647940075 C
   0.7444956466666668    0.6431131600000000    0.6254681647940075 C
   0.7444956466666666    0.9764464933333334    0.6254681647940075 C
   0.0901177666666667    0.3236047100000000    0.6254681647940075 C
   0.0901177666666668    0.6569380433333334    0.6254681647940075 C
   0.0901177666666668    0.9902713766666668    0.6254681647940075 C
   0.4234510999999999    0.3236047100000000    0.6254681647940075 C
   0.4234511000000000    0.6569380433333334    0.6254681647940075 C
   0.4234510999999999    0.9902713766666668    0.6254681647940075 C
   0.7567844333333332    0.3236047100000000    0.6254681647940075 C
   0.7567844333333332    0.6569380433333334    0.6254681647940075 C
   0.7567844333333333    0.9902713766666668    0.6254681647940075 C
   0.0302099333333334    0.2145417300000000    0.6254681647940075 C
   0.0302099333333334    0.5478750633333334    0.6254681647940075 C
   0.0302099333333334    0.8812083966666667    0.6254681647940075 C
   0.3635432666666666    0.2145417300000000    0.6254681647940075 C
   0.3635432666666666    0.5478750633333334    0.6254681647940075 C
   0.3635432666666668    0.8812083966666667    0.6254681647940075 C
   0.6968766000000000    0.2145417300000000    0.6254681647940075 C
   0.6968766000000000    0.5478750633333334    0.6254681647940075 C
   0.6968766000000002    0.8812083966666667    0.6254681647940075 C
   0.0424987200000000    0.2283666166666667    0.6254681647940075 C
   0.0424987200000000    0.5616999499999999    0.6254681647940075 C
   0.0424987200000000    0.8950332833333333    0.6254681647940075 C
   0.3758320533333333    0.2283666166666667    0.6254681647940075 C
   0.3758320533333334    0.5616999499999999    0.6254681647940075 C
   0.3758320533333334    0.8950332833333333    0.6254681647940075 C
   0.7091653866666666    0.2283666166666667    0.6254681647940075 C
   0.7091653866666666    0.5616999499999999    0.6254681647940075 C
   0.7091653866666667    0.8950332833333333    0.6254681647940075 C
   0.0547875066666667    0.2421915000000000    0.6254681647940075 C
   0.0547875066666666    0.5755248333333334    0.6254681647940075 C
   0.0547875066666667    0.9088581666666666    0.6254681647940075 C
   0.3881208400000000    0.2421915000000000    0.6254681647940075 C
   0.3881208399999999    0.5755248333333334    0.6254681647940075 C
   0.3881208400000001    0.9088581666666666    0.6254681647940075 C
   0.7214541733333333    0.2421915000000000    0.6254681647940075 C
   0.7214541733333332    0.5755248333333334    0.6254681647940075 C
   0.7214541733333331    0.9088581666666666    0.6254681647940075 C
   0.0670762933333333    0.2560163866666667    0.6254681647940075 C
   0.0670762933333333    0.5893497200000000    0.6254681647940075 C
   0.0670762933333334    0.9226830533333332    0.6254681647940075 C
   0.4004096266666667    0.2560163866666667    0.6254681647940075 C
   0.4004096266666667    0.5893497200000000    0.6254681647940075 C
   0.4004096266666668    0.9226830533333332    0.6254681647940075 C
   0.7337429600000001    0.2560163866666667    0.6254681647940075 C
   0.7337429599999998    0.5893497200000000    0.6254681647940075 C
   0.7337429599999997    0.9226830533333332    0.6254681647940075 C
   0.0793650800000000    0.2698412700000000    0.6254681647940075 C
   0.0793650799999999    0.6031746033333333    0.6254681647940075 C
   0.0793650800000001    0.9365079366666667    0.6254681647940075 C
   0.4126984133333333    0.2698412700000000    0.6254681647940075 C
   0.4126984133333333    0.6031746033333333    0.6254681647940075 C
   0.4126984133333335    0.9365079366666667    0.6254681647940075 C
   0.7460317466666665    0.2698412700000000    0.6254681647940075 C
   0.7460317466666665    0.6031746033333333    0.6254681647940075 C
   0.7460317466666664    0.9365079366666667    0.6254681647940075 C
   0.0916538666666667    0.2836661533333333    0.6254681647940075 C
   0.0916538666666668    0.6169994866666666    0.6254681647940075 C
   0.0916538666666668    0.9503328200000000    0.6254681647940075 C
   0.4249871999999999    0.2836661533333333    0.6254681647940075 C
   0.4249871999999999    0.6169994866666666    0.6254681647940075 C
   0.4249872000000002    0.9503328200000000    0.6254681647940075 C
   0.7583205333333333    0.2836661533333333    0.6254681647940075 C
   0.7583205333333330    0.6169994866666666    0.6254681647940075 C
   0.7583205333333333    0.9503328200000000    0.6254681647940075 C
   0.1039426533333334    0.2974910400000000    0.6254681647940075 C
   0.1039426533333334    0.6308243733333334    0.6254681647940075 C
   0.1039426533333334    0.9641577066666667    0.6254681647940075 C
   0.4372759866666666    0.2974910400000000    0.6254681647940075 C
   0.4372759866666666    0.6308243733333334    0.6254681647940075 C
   0.4372759866666668    0.9641577066666667    0.6254681647940075 C
   0.7706093199999998    0.2974910400000000    0.6254681647940075 C
   0.7706093199999998    0.6308243733333334    0.6254681647940075 C
   0.7706093200000002    0.9641577066666667    0.6254681647940075 C
   0.1162314400000000    0.3113159233333333    0.6254681647940075 C
   0.1162314400000001    0.6446492566666667    0.6254681647940075 C
   0.1162314400000001    0.9779825900000000    0.6254681647940075 C
   0.4495647733333333    0.3113159233333333    0.6254681647940075 C
   0.4495647733333333    0.6446492566666667    0.6254681647940075 C
   0.4495647733333334    0.9779825900000000    0.6254681647940075 C
   0.7828981066666666    0.3113159233333333    0.6254681647940075 C
   0.7828981066666666    0.6446492566666667    0.6254681647940075 C
   0.7828981066666664    0.9779825900000000    0.6254681647940075 C
   0.1285202266666667    0.3251408099999999    0.6254681647940075 C
   0.1285202266666667    0.6584741433333333    0.6254681647940075 C
   0.1285202266666668    0.9918074766666667    0.6254681647940075 C
   0.4618535600000000    0.3251408099999999    0.6254681647940075 C
   0.4618535599999999    0.6584741433333333    0.6254681647940075 C
   0.4618535600000001    0.9918074766666667    0.6254681647940075 C
   0.7951868933333331    0.3251408099999999    0.6254681647940075 C
   0.7951868933333333    0.6584741433333333    0.6254681647940075 C
   0.7951868933333330    0.9918074766666667    0.6254681647940075 C
   0.0317460333333333    0.1746031733333333    0.6254681647940075 C
   0.0317460333333333    0.5079365066666667    0.6254681647940075 C
   0.0317460333333334    0.8412698399999999    0.6254681647940075 C
   0.3650793666666667    0.1746031733333333    0.6254681647940075 C
   0.3650793666666665    0.5079365066666667    0.6254681647940075 C
   0.3650793666666668    0.8412698399999999    0.6254681647940075 C
   0.6984127000000001    0.1746031733333333    0.6254681647940075 C
   0.6984127000000000    0.5079365066666667    0.6254681647940075 C
   0.6984127000000001    0.8412698399999999    0.6254681647940075 C
   0.0440348166666667    0.1884280600000000    0.6254681647940075 C
   0.0440348166666667    0.5217613933333333    0.6254681647940075 C
   0.0440348166666667    0.8550947266666667    0.6254681647940075 C
   0.3773681500000000    0.1884280600000000    0.6254681647940075 C
   0.3773681500000000    0.5217613933333333    0.6254681647940075 C
   0.3773681500000000    0.8550947266666667    0.6254681647940075 C
   0.7107014833333332    0.1884280600000000    0.6254681647940075 C
   0.7107014833333332    0.5217613933333333    0.6254681647940075 C
   0.7107014833333331    0.8550947266666667    0.6254681647940075 C
   0.0563236033333333    0.2022529433333333    0.6254681647940075 C
   0.0563236033333335    0.5355862766666666    0.6254681647940075 C
   0.0563236033333333    0.8689196100000001    0.6254681647940075 C
   0.3896569366666666    0.2022529433333333    0.6254681647940075 C
   0.3896569366666668    0.5355862766666666    0.6254681647940075 C
   0.3896569366666667    0.8689196100000001    0.6254681647940075 C
   0.7229902699999999    0.2022529433333333    0.6254681647940075 C
   0.7229902699999998    0.5355862766666666    0.6254681647940075 C
   0.7229902699999996    0.8689196100000001    0.6254681647940075 C
   0.0686123900000000    0.2160778300000000    0.6254681647940075 C
   0.0686123900000000    0.5494111633333334    0.6254681647940075 C
   0.0686123900000001    0.8827444966666667    0.6254681647940075 C
   0.4019457233333333    0.2160778300000000    0.6254681647940075 C
   0.4019457233333334    0.5494111633333334    0.6254681647940075 C
   0.4019457233333333    0.8827444966666667    0.6254681647940075 C
   0.7352790566666666    0.2160778300000000    0.6254681647940075 C
   0.7352790566666666    0.5494111633333334    0.6254681647940075 C
   0.7352790566666667    0.8827444966666667    0.6254681647940075 C
   0.0809011766666667    0.2299027133333334    0.6254681647940075 C
   0.0809011766666667    0.5632360466666667    0.6254681647940075 C
   0.0809011766666668    0.8965693800000000    0.6254681647940075 C
   0.4142345100000000    0.2299027133333334    0.6254681647940075 C
   0.4142345100000001    0.5632360466666667    0.6254681647940075 C
   0.4142345100000002    0.8965693800000000    0.6254681647940075 C
   0.7475678433333334    0.2299027133333334    0.6254681647940075 C
   0.7475678433333333    0.5632360466666667    0.6254681647940075 C
   0.7475678433333335    0.8965693800000000    0.6254681647940075 C
   0.0931899633333333    0.2437276000000000    0.6254681647940075 C
   0.0931899633333334    0.5770609333333333    0.6254681647940075 C
   0.0931899633333334    0.9103942666666668    0.6254681647940075 C
   0.4265232966666667    0.2437276000000000    0.6254681647940075 C
   0.4265232966666667    0.5770609333333333    0.6254681647940075 C
   0.4265232966666666    0.9103942666666668    0.6254681647940075 C
   0.7598566299999999    0.2437276000000000    0.6254681647940075 C
   0.7598566299999999    0.5770609333333333    0.6254681647940075 C
   0.7598566300000000    0.9103942666666668    0.6254681647940075 C
   0.1054787500000000    0.2575524833333333    0.6254681647940075 C
   0.1054787500000000    0.5908858166666666    0.6254681647940075 C
   0.1054787500000000    0.9242191500000001    0.6254681647940075 C
   0.4388120833333333    0.2575524833333333    0.6254681647940075 C
   0.4388120833333333    0.5908858166666666    0.6254681647940075 C
   0.4388120833333333    0.9242191500000001    0.6254681647940075 C
   0.7721454166666666    0.2575524833333333    0.6254681647940075 C
   0.7721454166666665    0.5908858166666666    0.6254681647940075 C
   0.7721454166666663    0.9242191500000001    0.6254681647940075 C
   0.1177675366666667    0.2713773666666667    0.6254681647940075 C
   0.1177675366666667    0.6047107000000000    0.6254681647940075 C
   0.1177675366666667    0.9380440333333333    0.6254681647940075 C
   0.4511008699999999    0.2713773666666667    0.6254681647940075 C
   0.4511008699999999    0.6047107000000000    0.6254681647940075 C
   0.4511008700000001    0.9380440333333333    0.6254681647940075 C
   0.7844342033333331    0.2713773666666667    0.6254681647940075 C
   0.7844342033333331    0.6047107000000000    0.6254681647940075 C
   0.7844342033333332    0.9380440333333333    0.6254681647940075 C
   0.1300563233333334    0.2852022533333333    0.6254681647940075 C
   0.1300563233333333    0.6185355866666666    0.6254681647940075 C
   0.1300563233333333    0.9518689200000001    0.6254681647940075 C
   0.4633896566666666    0.2852022533333333    0.6254681647940075 C
   0.4633896566666665    0.6185355866666666    0.6254681647940075 C
   0.4633896566666669    0.9518689200000001    0.6254681647940075 C
   0.7967229900000000    0.2852022533333333    0.6254681647940075 C
   0.7967229899999998    0.6185355866666666    0.6254681647940075 C
   0.7967229900000000    0.9518689200000001    0.6254681647940075 C
   0.1423451100000000    0.2990271366666666    0.6254681647940075 C
   0.1423451100000000    0.6323604700000000    0.6254681647940075 C
   0.1423451100000001    0.9656938033333332    0.6254681647940075 C
   0.4756784433333331    0.2990271366666666    0.6254681647940075 C
   0.4756784433333333    0.6323604700000000    0.6254681647940075 C
   0.4756784433333335    0.9656938033333332    0.6254681647940075 C
   0.8090117766666665    0.2990271366666666    0.6254681647940075 C
   0.8090117766666665    0.6323604700000000    0.6254681647940075 C
   0.8090117766666666    0.9656938033333332    0.6254681647940075 C
   0.1546338966666667    0.3128520233333333    0.6254681647940075 C
   0.1546338966666666    0.6461853566666665    0.6254681647940075 C
   0.1546338966666666    0.9795186900000000    0.6254681647940075 C
   0.4879672299999999    0.3128520233333333    0.6254681647940075 C
   0.4879672299999999    0.6461853566666665    0.6254681647940075 C
   0.4879672300000001    0.9795186900000000    0.6254681647940075 C
   0.8213005633333332    0.3128520233333333    0.6254681647940075 C
   0.8213005633333331    0.6461853566666665    0.6254681647940075 C
   0.8213005633333333    0.9795186900000000    0.6254681647940075 C
   0.1669226833333333    0.3266769066666667    0.6254681647940075 C
   0.1669226833333334    0.6600102400000000    0.6254681647940075 C
   0.1669226833333335    0.9933435733333335    0.6254681647940075 C
   0.5002560166666667    0.3266769066666667    0.6254681647940075 C
   0.5002560166666665    0.6600102400000000    0.6254681647940075 C
   0.5002560166666667    0.9933435733333335    0.6254681647940075 C
   0.8335893499999999    0.3266769066666667    0.6254681647940075 C
   0.8335893499999998    0.6600102400000000    0.6254681647940075 C
   0.8335893499999997    0.9933435733333335    0.6254681647940075 C
   0.0332821300000000    0.1346646200000000    0.6254681647940075 C
   0.0332821300000000    0.4679979533333333    0.6254681647940075 C
   0.0332821300000000    0.8013312866666668    0.6254681647940075 C
   0.3666154633333333    0.1346646200000000    0.6254681647940075 C
   0.3666154633333332    0.4679979533333333    0.6254681647940075 C
   0.3666154633333333    0.8013312866666668    0.6254681647940075 C
   0.6999487966666665    0.1346646200000000    0.6254681647940075 C
   0.6999487966666665    0.4679979533333333    0.6254681647940075 C
   0.6999487966666664    0.8013312866666668    0.6254681647940075 C
   0.0455709166666667    0.1484895033333333    0.6254681647940075 C
   0.0455709166666667    0.4818228366666667    0.6254681647940075 C
   0.0455709166666668    0.8151561700000001    0.6254681647940075 C
   0.3789042499999999    0.1484895033333333    0.6254681647940075 C
   0.3789042500000000    0.4818228366666667    0.6254681647940075 C
   0.3789042500000001    0.8151561700000001    0.6254681647940075 C
   0.7122375833333332    0.1484895033333333    0.6254681647940075 C
   0.7122375833333332    0.4818228366666667    0.6254681647940075 C
   0.7122375833333331    0.8151561700000001    0.6254681647940075 C
   0.0578597033333333    0.1623143866666666    0.6254681647940075 C
   0.0578597033333334    0.4956477200000000    0.6254681647940075 C
   0.0578597033333334    0.8289810533333333    0.6254681647940075 C
   0.3911930366666666    0.1623143866666666    0.6254681647940075 C
   0.3911930366666666    0.4956477200000000    0.6254681647940075 C
   0.3911930366666668    0.8289810533333333    0.6254681647940075 C
   0.7245263699999999    0.1623143866666666    0.6254681647940075 C
   0.7245263700000000    0.4956477200000000    0.6254681647940075 C
   0.7245263699999999    0.8289810533333333    0.6254681647940075 C
   0.0701484900000000    0.1761392733333333    0.6254681647940075 C
   0.0701484900000000    0.5094726066666667    0.6254681647940075 C
   0.0701484900000000    0.8428059400000001    0.6254681647940075 C
   0.4034818233333333    0.1761392733333333    0.6254681647940075 C
   0.4034818233333333    0.5094726066666667    0.6254681647940075 C
   0.4034818233333334    0.8428059400000001    0.6254681647940075 C
   0.7368151566666666    0.1761392733333333    0.6254681647940075 C
   0.7368151566666665    0.5094726066666667    0.6254681647940075 C
   0.7368151566666664    0.8428059400000001    0.6254681647940075 C
   0.0824372766666667    0.1899641566666667    0.6254681647940075 C
   0.0824372766666667    0.5232974900000000    0.6254681647940075 C
   0.0824372766666667    0.8566308233333334    0.6254681647940075 C
   0.4157706099999999    0.1899641566666667    0.6254681647940075 C
   0.4157706100000000    0.5232974900000000    0.6254681647940075 C
   0.4157706100000001    0.8566308233333334    0.6254681647940075 C
   0.7491039433333333    0.1899641566666667    0.6254681647940075 C
   0.7491039433333331    0.5232974900000000    0.6254681647940075 C
   0.7491039433333330    0.8566308233333334    0.6254681647940075 C
   0.0947260633333334    0.2037890433333333    0.6254681647940075 C
   0.0947260633333334    0.5371223766666666    0.6254681647940075 C
   0.0947260633333333    0.8704557099999999    0.6254681647940075 C
   0.4280593966666666    0.2037890433333333    0.6254681647940075 C
   0.4280593966666667    0.5371223766666666    0.6254681647940075 C
   0.4280593966666666    0.8704557099999999    0.6254681647940075 C
   0.7613927299999999    0.2037890433333333    0.6254681647940075 C
   0.7613927300000000    0.5371223766666666    0.6254681647940075 C
   0.7613927299999999    0.8704557099999999    0.6254681647940075 C
   0.1070148500000000    0.2176139266666667    0.6254681647940075 C
   0.1070148500000001    0.5509472599999999    0.6254681647940075 C
   0.1070148500000001    0.8842805933333332    0.6254681647940075 C
   0.4403481833333332    0.2176139266666667    0.6254681647940075 C
   0.4403481833333333    0.5509472599999999    0.6254681647940075 C
   0.4403481833333335    0.8842805933333332    0.6254681647940075 C
   0.7736815166666666    0.2176139266666667    0.6254681647940075 C
   0.7736815166666664    0.5509472599999999    0.6254681647940075 C
   0.7736815166666665    0.8842805933333332    0.6254681647940075 C
   0.1193036366666667    0.2314388133333333    0.6254681647940075 C
   0.1193036366666667    0.5647721466666666    0.6254681647940075 C
   0.1193036366666668    0.8981054800000000    0.6254681647940075 C
   0.4526369700000000    0.2314388133333333    0.6254681647940075 C
   0.4526369700000000    0.5647721466666666    0.6254681647940075 C
   0.4526369700000001    0.8981054800000000    0.6254681647940075 C
   0.7859703033333333    0.2314388133333333    0.6254681647940075 C
   0.7859703033333333    0.5647721466666666    0.6254681647940075 C
   0.7859703033333331    0.8981054800000000    0.6254681647940075 C
   0.1315924233333333    0.2452636966666666    0.6254681647940075 C
   0.1315924233333334    0.5785970300000000    0.6254681647940075 C
   0.1315924233333335    0.9119303633333333    0.6254681647940075 C
   0.4649257566666668    0.2452636966666666    0.6254681647940075 C
   0.4649257566666667    0.5785970300000000    0.6254681647940075 C
   0.4649257566666668    0.9119303633333333    0.6254681647940075 C
   0.7982590899999999    0.2452636966666666    0.6254681647940075 C
   0.7982590900000001    0.5785970300000000    0.6254681647940075 C
   0.7982590900000001    0.9119303633333333    0.6254681647940075 C
   0.1438812100000001    0.2590885833333333    0.6254681647940075 C
   0.1438812100000000    0.5924219166666667    0.6254681647940075 C
   0.1438812100000000    0.9257552500000000    0.6254681647940075 C
   0.4772145433333334    0.2590885833333333    0.6254681647940075 C
   0.4772145433333332    0.5924219166666667    0.6254681647940075 C
   0.4772145433333334    0.9257552500000000    0.6254681647940075 C
   0.8105478766666666    0.2590885833333333    0.6254681647940075 C
   0.8105478766666666    0.5924219166666667    0.6254681647940075 C
   0.8105478766666665    0.9257552500000000    0.6254681647940075 C
   0.1561699933333334    0.2729134666666667    0.6254681647940075 C
   0.1561699933333333    0.6062468000000000    0.6254681647940075 C
   0.1561699933333334    0.9395801333333333    0.6254681647940075 C
   0.4895033266666667    0.2729134666666667    0.6254681647940075 C
   0.4895033266666667    0.6062468000000000    0.6254681647940075 C
   0.4895033266666668    0.9395801333333333    0.6254681647940075 C
   0.8228366599999999    0.2729134666666667    0.6254681647940075 C
   0.8228366599999997    0.6062468000000000    0.6254681647940075 C
   0.8228366600000000    0.9395801333333333    0.6254681647940075 C
   0.1684587800000000    0.2867383500000000    0.6254681647940075 C
   0.1684587800000001    0.6200716833333333    0.6254681647940075 C
   0.1684587800000000    0.9534050166666667    0.6254681647940075 C
   0.5017921133333333    0.2867383500000000    0.6254681647940075 C
   0.5017921133333332    0.6200716833333333    0.6254681647940075 C
   0.5017921133333334    0.9534050166666667    0.6254681647940075 C
   0.8351254466666667    0.2867383500000000    0.6254681647940075 C
   0.8351254466666664    0.6200716833333333    0.6254681647940075 C
   0.8351254466666667    0.9534050166666667    0.6254681647940075 C
   0.1807475666666667    0.3005632366666666    0.6254681647940075 C
   0.1807475666666667    0.6338965700000000    0.6254681647940075 C
   0.1807475666666667    0.9672299033333334    0.6254681647940075 C
   0.5140808999999998    0.3005632366666666    0.6254681647940075 C
   0.5140809000000001    0.6338965700000000    0.6254681647940075 C
   0.5140809000000002    0.9672299033333334    0.6254681647940075 C
   0.8474142333333332    0.3005632366666666    0.6254681647940075 C
   0.8474142333333330    0.6338965700000000    0.6254681647940075 C
   0.8474142333333333    0.9672299033333334    0.6254681647940075 C
   0.1930363533333333    0.3143881200000000    0.6254681647940075 C
   0.1930363533333334    0.6477214533333333    0.6254681647940075 C
   0.1930363533333336    0.9810547866666666    0.6254681647940075 C
   0.5263696866666666    0.3143881200000000    0.6254681647940075 C
   0.5263696866666665    0.6477214533333333    0.6254681647940075 C
   0.5263696866666666    0.9810547866666666    0.6254681647940075 C
   0.8597030199999999    0.3143881200000000    0.6254681647940075 C
   0.8597030200000002    0.6477214533333333    0.6254681647940075 C
   0.8597030200000001    0.9810547866666666    0.6254681647940075 C
   0.2053251400000000    0.3282130066666667    0.6254681647940075 C
   0.2053251400000000    0.6615463400000000    0.6254681647940075 C
   0.2053251400000002    0.9948796733333334    0.6254681647940075 C
   0.5386584733333334    0.3282130066666667    0.6254681647940075 C
   0.5386584733333335    0.6615463400000000    0.6254681647940075 C
   0.5386584733333336    0.9948796733333334    0.6254681647940075 C
   0.8719918066666665    0.3282130066666667    0.6254681647940075 C
   0.8719918066666669    0.6615463400000000    0.6254681647940075 C
   0.8719918066666669    0.9948796733333334    0.6254681647940075 C
   0.0348182300000000    0.0947260633333333    0.6254681647940075 C
   0.0348182300000000    0.4280593966666667    0.6254681647940075 C
   0.0348182300000000    0.7613927300000000    0.6254681647940075 C
   0.3681515633333333    0.0947260633333333    0.6254681647940075 C
   0.3681515633333334    0.4280593966666667    0.6254681647940075 C
   0.3681515633333333    0.7613927300000000    0.6254681647940075 C
   0.7014848966666666    0.0947260633333333    0.6254681647940075 C
   0.7014848966666665    0.4280593966666667    0.6254681647940075 C
   0.7014848966666664    0.7613927300000000    0.6254681647940075 C
   0.0471070133333333    0.1085509466666667    0.6254681647940075 C
   0.0471070133333333    0.4418842800000001    0.6254681647940075 C
   0.0471070133333334    0.7752176133333333    0.6254681647940075 C
   0.3804403466666667    0.1085509466666667    0.6254681647940075 C
   0.3804403466666666    0.4418842800000001    0.6254681647940075 C
   0.3804403466666667    0.7752176133333333    0.6254681647940075 C
   0.7137736799999999    0.1085509466666667    0.6254681647940075 C
   0.7137736799999999    0.4418842800000001    0.6254681647940075 C
   0.7137736800000000    0.7752176133333333    0.6254681647940075 C
   0.0593958000000000    0.1223758333333333    0.6254681647940075 C
   0.0593958000000000    0.4557091666666667    0.6254681647940075 C
   0.0593958000000001    0.7890425000000000    0.6254681647940075 C
   0.3927291333333333    0.1223758333333333    0.6254681647940075 C
   0.3927291333333332    0.4557091666666667    0.6254681647940075 C
   0.3927291333333334    0.7890425000000000    0.6254681647940075 C
   0.7260624666666665    0.1223758333333333    0.6254681647940075 C
   0.7260624666666666    0.4557091666666667    0.6254681647940075 C
   0.7260624666666665    0.7890425000000000    0.6254681647940075 C
   0.0716845866666667    0.1362007166666667    0.6254681647940075 C
   0.0716845866666667    0.4695340500000000    0.6254681647940075 C
   0.0716845866666668    0.8028673833333332    0.6254681647940075 C
   0.4050179200000000    0.1362007166666667    0.6254681647940075 C
   0.4050179200000000    0.4695340500000000    0.6254681647940075 C
   0.4050179200000001    0.8028673833333332    0.6254681647940075 C
   0.7383512533333332    0.1362007166666667    0.6254681647940075 C
   0.7383512533333332    0.4695340500000000    0.6254681647940075 C
   0.7383512533333332    0.8028673833333332    0.6254681647940075 C
   0.0839733733333334    0.1500256000000000    0.6254681647940075 C
   0.0839733733333334    0.4833589333333333    0.6254681647940075 C
   0.0839733733333334    0.8166922666666668    0.6254681647940075 C
   0.4173067066666666    0.1500256000000000    0.6254681647940075 C
   0.4173067066666666    0.4833589333333333    0.6254681647940075 C
   0.4173067066666666    0.8166922666666668    0.6254681647940075 C
   0.7506400400000000    0.1500256000000000    0.6254681647940075 C
   0.7506400399999998    0.4833589333333333    0.6254681647940075 C
   0.7506400399999997    0.8166922666666668    0.6254681647940075 C
   0.0962621600000000    0.1638504866666667    0.6254681647940075 C
   0.0962621600000001    0.4971838200000001    0.6254681647940075 C
   0.0962621600000000    0.8305171533333333    0.6254681647940075 C
   0.4295954933333333    0.1638504866666667    0.6254681647940075 C
   0.4295954933333332    0.4971838200000001    0.6254681647940075 C
   0.4295954933333334    0.8305171533333333    0.6254681647940075 C
   0.7629288266666665    0.1638504866666667    0.6254681647940075 C
   0.7629288266666665    0.4971838200000001    0.6254681647940075 C
   0.7629288266666664    0.8305171533333333    0.6254681647940075 C
   0.1085509466666666    0.1776753700000000    0.6254681647940075 C
   0.1085509466666666    0.5110087033333334    0.6254681647940075 C
   0.1085509466666668    0.8443420366666666    0.6254681647940075 C
   0.4418842799999999    0.1776753700000000    0.6254681647940075 C
   0.4418842799999999    0.5110087033333334    0.6254681647940075 C
   0.4418842800000001    0.8443420366666666    0.6254681647940075 C
   0.7752176133333332    0.1776753700000000    0.6254681647940075 C
   0.7752176133333332    0.5110087033333334    0.6254681647940075 C
   0.7752176133333333    0.8443420366666666    0.6254681647940075 C
   0.1208397333333333    0.1915002566666666    0.6254681647940075 C
   0.1208397333333334    0.5248335900000000    0.6254681647940075 C
   0.1208397333333333    0.8581669233333333    0.6254681647940075 C
   0.4541730666666666    0.1915002566666666    0.6254681647940075 C
   0.4541730666666666    0.5248335900000000    0.6254681647940075 C
   0.4541730666666666    0.8581669233333333    0.6254681647940075 C
   0.7875063999999998    0.1915002566666666    0.6254681647940075 C
   0.7875063999999999    0.5248335900000000    0.6254681647940075 C
   0.7875063999999999    0.8581669233333333    0.6254681647940075 C
   0.1331285200000000    0.2053251400000000    0.6254681647940075 C
   0.1331285200000001    0.5386584733333333    0.6254681647940075 C
   0.1331285200000000    0.8719918066666666    0.6254681647940075 C
   0.4664618533333333    0.2053251400000000    0.6254681647940075 C
   0.4664618533333333    0.5386584733333333    0.6254681647940075 C
   0.4664618533333334    0.8719918066666666    0.6254681647940075 C
   0.7997951866666665    0.2053251400000000    0.6254681647940075 C
   0.7997951866666664    0.5386584733333333    0.6254681647940075 C
   0.7997951866666665    0.8719918066666666    0.6254681647940075 C
   0.1454173066666667    0.2191500266666667    0.6254681647940075 C
   0.1454173066666667    0.5524833600000001    0.6254681647940075 C
   0.1454173066666667    0.8858166933333335    0.6254681647940075 C
   0.4787506400000001    0.2191500266666667    0.6254681647940075 C
   0.4787506400000000    0.5524833600000001    0.6254681647940075 C
   0.4787506399999999    0.8858166933333335    0.6254681647940075 C
   0.8120839733333332    0.2191500266666667    0.6254681647940075 C
   0.8120839733333332    0.5524833600000001    0.6254681647940075 C
   0.8120839733333330    0.8858166933333335    0.6254681647940075 C
   0.1577060933333333    0.2329749100000000    0.6254681647940075 C
   0.1577060933333334    0.5663082433333334    0.6254681647940075 C
   0.1577060933333334    0.8996415766666667    0.6254681647940075 C
   0.4910394266666667    0.2329749100000000    0.6254681647940075 C
   0.4910394266666667    0.5663082433333334    0.6254681647940075 C
   0.4910394266666667    0.8996415766666667    0.6254681647940075 C
   0.8243727599999999    0.2329749100000000    0.6254681647940075 C
   0.8243727600000000    0.5663082433333334    0.6254681647940075 C
   0.8243727599999998    0.8996415766666667    0.6254681647940075 C
   0.1699948800000000    0.2467997966666667    0.6254681647940075 C
   0.1699948800000001    0.5801331300000000    0.6254681647940075 C
   0.1699948800000000    0.9134664633333335    0.6254681647940075 C
   0.5033282133333333    0.2467997966666667    0.6254681647940075 C
   0.5033282133333332    0.5801331300000000    0.6254681647940075 C
   0.5033282133333333    0.9134664633333335    0.6254681647940075 C
   0.8366615466666666    0.2467997966666667    0.6254681647940075 C
   0.8366615466666667    0.5801331300000000    0.6254681647940075 C
   0.8366615466666666    0.9134664633333335    0.6254681647940075 C
   0.1822836666666667    0.2606246800000000    0.6254681647940075 C
   0.1822836666666666    0.5939580133333333    0.6254681647940075 C
   0.1822836666666667    0.9272913466666668    0.6254681647940075 C
   0.5156170000000000    0.2606246800000000    0.6254681647940075 C
   0.5156170000000000    0.5939580133333333    0.6254681647940075 C
   0.5156170000000000    0.9272913466666668    0.6254681647940075 C
   0.8489503333333333    0.2606246800000000    0.6254681647940075 C
   0.8489503333333335    0.5939580133333333    0.6254681647940075 C
   0.8489503333333333    0.9272913466666668    0.6254681647940075 C
   0.1945724533333334    0.2744495633333333    0.6254681647940075 C
   0.1945724533333334    0.6077828966666666    0.6254681647940075 C
   0.1945724533333332    0.9411162300000001    0.6254681647940075 C
   0.5279057866666665    0.2744495633333333    0.6254681647940075 C
   0.5279057866666667    0.6077828966666666    0.6254681647940075 C
   0.5279057866666668    0.9411162300000001    0.6254681647940075 C
   0.8612391200000000    0.2744495633333333    0.6254681647940075 C
   0.8612391199999997    0.6077828966666666    0.6254681647940075 C
   0.8612391199999998    0.9411162300000001    0.6254681647940075 C
   0.2068612400000001    0.2882744500000000    0.6254681647940075 C
   0.2068612399999999    0.6216077833333333    0.6254681647940075 C
   0.2068612400000001    0.9549411166666666    0.6254681647940075 C
   0.5401945733333333    0.2882744500000000    0.6254681647940075 C
   0.5401945733333333    0.6216077833333333    0.6254681647940075 C
   0.5401945733333334    0.9549411166666666    0.6254681647940075 C
   0.8735279066666667    0.2882744500000000    0.6254681647940075 C
   0.8735279066666666    0.6216077833333333    0.6254681647940075 C
   0.8735279066666667    0.9549411166666666    0.6254681647940075 C
   0.2191500266666667    0.3020993333333333    0.6254681647940075 C
   0.2191500266666667    0.6354326666666666    0.6254681647940075 C
   0.2191500266666669    0.9687659999999999    0.6254681647940075 C
   0.5524833599999999    0.3020993333333333    0.6254681647940075 C
   0.5524833600000000    0.6354326666666666    0.6254681647940075 C
   0.5524833600000001    0.9687659999999999    0.6254681647940075 C
   0.8858166933333332    0.3020993333333333    0.6254681647940075 C
   0.8858166933333332    0.6354326666666666    0.6254681647940075 C
   0.8858166933333333    0.9687659999999999    0.6254681647940075 C
   0.2314388133333334    0.3159242200000000    0.6254681647940075 C
   0.2314388133333335    0.6492575533333333    0.6254681647940075 C
   0.2314388133333334    0.9825908866666667    0.6254681647940075 C
   0.5647721466666666    0.3159242200000000    0.6254681647940075 C
   0.5647721466666666    0.6492575533333333    0.6254681647940075 C
   0.5647721466666666    0.9825908866666667    0.6254681647940075 C
   0.8981054800000000    0.3159242200000000    0.6254681647940075 C
   0.8981054800000001    0.6492575533333333    0.6254681647940075 C
   0.8981054799999999    0.9825908866666667    0.6254681647940075 C
   0.2437276000000000    0.3297491033333333    0.6254681647940075 C
   0.2437276000000001    0.6630824366666667    0.6254681647940075 C
   0.2437276000000001    0.9964157700000000    0.6254681647940075 C
   0.5770609333333333    0.3297491033333333    0.6254681647940075 C
   0.5770609333333333    0.6630824366666667    0.6254681647940075 C
   0.5770609333333334    0.9964157700000000    0.6254681647940075 C
   0.9103942666666666    0.3297491033333333    0.6254681647940075 C
   0.9103942666666666    0.6630824366666667    0.6254681647940075 C
   0.9103942666666665    0.9964157700000000    0.6254681647940075 C
   0.0363543266666667    0.0547875066666667    0.6254681647940075 C
   0.0363543266666667    0.3881208400000000    0.6254681647940075 C
   0.0363543266666667    0.7214541733333334    0.6254681647940075 C
   0.3696876600000000    0.0547875066666667    0.6254681647940075 C
   0.3696876599999999    0.3881208400000000    0.6254681647940075 C
   0.3696876600000001    0.7214541733333334    0.6254681647940075 C
   0.7030209933333331    0.0547875066666667    0.6254681647940075 C
   0.7030209933333333    0.3881208400000000    0.6254681647940075 C
   0.7030209933333331    0.7214541733333334    0.6254681647940075 C
   0.0486431133333333    0.0686123900000000    0.6254681647940075 C
   0.0486431133333333    0.4019457233333333    0.6254681647940075 C
   0.0486431133333334    0.7352790566666667    0.6254681647940075 C
   0.3819764466666667    0.0686123900000000    0.6254681647940075 C
   0.3819764466666666    0.4019457233333333    0.6254681647940075 C
   0.3819764466666669    0.7352790566666667    0.6254681647940075 C
   0.7153097800000000    0.0686123900000000    0.6254681647940075 C
   0.7153097799999999    0.4019457233333333    0.6254681647940075 C
   0.7153097799999999    0.7352790566666667    0.6254681647940075 C
   0.0609319000000000    0.0824372766666667    0.6254681647940075 C
   0.0609319000000001    0.4157706100000000    0.6254681647940075 C
   0.0609319000000001    0.7491039433333333    0.6254681647940075 C
   0.3942652333333334    0.0824372766666667    0.6254681647940075 C
   0.3942652333333332    0.4157706100000000    0.6254681647940075 C
   0.3942652333333335    0.7491039433333333    0.6254681647940075 C
   0.7275985666666664    0.0824372766666667    0.6254681647940075 C
   0.7275985666666667    0.4157706100000000    0.6254681647940075 C
   0.7275985666666668    0.7491039433333333    0.6254681647940075 C
   0.0732206866666667    0.0962621600000000    0.6254681647940075 C
   0.0732206866666667    0.4295954933333334    0.6254681647940075 C
   0.0732206866666668    0.7629288266666666    0.6254681647940075 C
   0.4065540200000000    0.0962621600000000    0.6254681647940075 C
   0.4065540200000000    0.4295954933333334    0.6254681647940075 C
   0.4065540200000002    0.7629288266666666    0.6254681647940075 C
   0.7398873533333332    0.0962621600000000    0.6254681647940075 C
   0.7398873533333333    0.4295954933333334    0.6254681647940075 C
   0.7398873533333333    0.7629288266666666    0.6254681647940075 C
   0.0855094733333333    0.1100870466666667    0.6254681647940075 C
   0.0855094733333333    0.4434203800000000    0.6254681647940075 C
   0.0855094733333334    0.7767537133333334    0.6254681647940075 C
   0.4188428066666666    0.1100870466666667    0.6254681647940075 C
   0.4188428066666666    0.4434203800000000    0.6254681647940075 C
   0.4188428066666668    0.7767537133333334    0.6254681647940075 C
   0.7521761399999999    0.1100870466666667    0.6254681647940075 C
   0.7521761400000000    0.4434203800000000    0.6254681647940075 C
   0.7521761400000001    0.7767537133333334    0.6254681647940075 C
   0.0977982600000001    0.1239119300000000    0.6254681647940075 C
   0.0977982600000001    0.4572452633333333    0.6254681647940075 C
   0.0977982600000002    0.7905785966666667    0.6254681647940075 C
   0.4311315933333333    0.1239119300000000    0.6254681647940075 C
   0.4311315933333333    0.4572452633333333    0.6254681647940075 C
   0.4311315933333335    0.7905785966666667    0.6254681647940075 C
   0.7644649266666665    0.1239119300000000    0.6254681647940075 C
   0.7644649266666664    0.4572452633333333    0.6254681647940075 C
   0.7644649266666665    0.7905785966666667    0.6254681647940075 C
   0.1100870466666667    0.1377368166666667    0.6254681647940075 C
   0.1100870466666667    0.4710701500000000    0.6254681647940075 C
   0.1100870466666668    0.8044034833333334    0.6254681647940075 C
   0.4434203800000000    0.1377368166666667    0.6254681647940075 C
   0.4434203799999999    0.4710701500000000    0.6254681647940075 C
   0.4434203800000001    0.8044034833333334    0.6254681647940075 C
   0.7767537133333334    0.1377368166666667    0.6254681647940075 C
   0.7767537133333333    0.4710701500000000    0.6254681647940075 C
   0.7767537133333334    0.8044034833333334    0.6254681647940075 C
   0.1223758333333333    0.1515617000000000    0.6254681647940075 C
   0.1223758333333334    0.4848950333333334    0.6254681647940075 C
   0.1223758333333334    0.8182283666666668    0.6254681647940075 C
   0.4557091666666666    0.1515617000000000    0.6254681647940075 C
   0.4557091666666666    0.4848950333333334    0.6254681647940075 C
   0.4557091666666666    0.8182283666666668    0.6254681647940075 C
   0.7890424999999999    0.1515617000000000    0.6254681647940075 C
   0.7890424999999999    0.4848950333333334    0.6254681647940075 C
   0.7890424999999999    0.8182283666666668    0.6254681647940075 C
   0.1346646200000000    0.1653865833333334    0.6254681647940075 C
   0.1346646200000000    0.4987199166666667    0.6254681647940075 C
   0.1346646200000001    0.8320532500000001    0.6254681647940075 C
   0.4679979533333333    0.1653865833333334    0.6254681647940075 C
   0.4679979533333333    0.4987199166666667    0.6254681647940075 C
   0.4679979533333334    0.8320532500000001    0.6254681647940075 C
   0.8013312866666665    0.1653865833333334    0.6254681647940075 C
   0.8013312866666665    0.4987199166666667    0.6254681647940075 C
   0.8013312866666669    0.8320532500000001    0.6254681647940075 C
   0.1469534066666667    0.1792114700000000    0.6254681647940075 C
   0.1469534066666668    0.5125448033333333    0.6254681647940075 C
   0.1469534066666667    0.8458781366666667    0.6254681647940075 C
   0.4802867399999999    0.1792114700000000    0.6254681647940075 C
   0.4802867400000000    0.5125448033333333    0.6254681647940075 C
   0.4802867400000002    0.8458781366666667    0.6254681647940075 C
   0.8136200733333332    0.1792114700000000    0.6254681647940075 C
   0.8136200733333334    0.5125448033333333    0.6254681647940075 C
   0.8136200733333334    0.8458781366666667    0.6254681647940075 C
   0.1592421900000000    0.1930363533333333    0.6254681647940075 C
   0.1592421900000000    0.5263696866666666    0.6254681647940075 C
   0.1592421900000000    0.8597030200000001    0.6254681647940075 C
   0.4925755233333333    0.1930363533333333    0.6254681647940075 C
   0.4925755233333333    0.5263696866666666    0.6254681647940075 C
   0.4925755233333333    0.8597030200000001    0.6254681647940075 C
   0.8259088566666665    0.1930363533333333    0.6254681647940075 C
   0.8259088566666667    0.5263696866666666    0.6254681647940075 C
   0.8259088566666668    0.8597030200000001    0.6254681647940075 C
   0.1715309766666667    0.2068612400000000    0.6254681647940075 C
   0.1715309766666666    0.5401945733333333    0.6254681647940075 C
   0.1715309766666667    0.8735279066666666    0.6254681647940075 C
   0.5048643100000000    0.2068612400000000    0.6254681647940075 C
   0.5048643099999999    0.5401945733333333    0.6254681647940075 C
   0.5048643100000000    0.8735279066666666    0.6254681647940075 C
   0.8381976433333332    0.2068612400000000    0.6254681647940075 C
   0.8381976433333334    0.5401945733333333    0.6254681647940075 C
   0.8381976433333332    0.8735279066666666    0.6254681647940075 C
   0.1838197633333333    0.2206861233333333    0.6254681647940075 C
   0.1838197633333334    0.5540194566666666    0.6254681647940075 C
   0.1838197633333334    0.8873527899999999    0.6254681647940075 C
   0.5171530966666668    0.2206861233333333    0.6254681647940075 C
   0.5171530966666669    0.5540194566666666    0.6254681647940075 C
   0.5171530966666666    0.8873527899999999    0.6254681647940075 C
   0.8504864299999999    0.2206861233333333    0.6254681647940075 C
   0.8504864299999999    0.5540194566666666    0.6254681647940075 C
   0.8504864299999999    0.8873527899999999    0.6254681647940075 C
   0.1961085500000001    0.2345110100000000    0.6254681647940075 C
   0.1961085500000000    0.5678443433333333    0.6254681647940075 C
   0.1961085500000001    0.9011776766666667    0.6254681647940075 C
   0.5294418833333333    0.2345110100000000    0.6254681647940075 C
   0.5294418833333333    0.5678443433333333    0.6254681647940075 C
   0.5294418833333332    0.9011776766666667    0.6254681647940075 C
   0.8627752166666665    0.2345110100000000    0.6254681647940075 C
   0.8627752166666665    0.5678443433333333    0.6254681647940075 C
   0.8627752166666665    0.9011776766666667    0.6254681647940075 C
   0.2083973366666667    0.2483358933333334    0.6254681647940075 C
   0.2083973366666667    0.5816692266666666    0.6254681647940075 C
   0.2083973366666667    0.9150025600000000    0.6254681647940075 C
   0.5417306700000000    0.2483358933333334    0.6254681647940075 C
   0.5417306699999999    0.5816692266666666    0.6254681647940075 C
   0.5417306700000003    0.9150025600000000    0.6254681647940075 C
   0.8750640033333332    0.2483358933333334    0.6254681647940075 C
   0.8750640033333333    0.5816692266666666    0.6254681647940075 C
   0.8750640033333332    0.9150025600000000    0.6254681647940075 C
   0.2206861233333333    0.2621607766666667    0.6254681647940075 C
   0.2206861233333334    0.5954941100000001    0.6254681647940075 C
   0.2206861233333335    0.9288274433333333    0.6254681647940075 C
   0.5540194566666666    0.2621607766666667    0.6254681647940075 C
   0.5540194566666666    0.5954941100000001    0.6254681647940075 C
   0.5540194566666666    0.9288274433333333    0.6254681647940075 C
   0.8873527900000000    0.2621607766666667    0.6254681647940075 C
   0.8873527900000000    0.5954941100000001    0.6254681647940075 C
   0.8873527899999999    0.9288274433333333    0.6254681647940075 C
   0.2329749100000000    0.2759856633333333    0.6254681647940075 C
   0.2329749100000001    0.6093189966666667    0.6254681647940075 C
   0.2329749100000000    0.9426523300000000    0.6254681647940075 C
   0.5663082433333333    0.2759856633333333    0.6254681647940075 C
   0.5663082433333334    0.6093189966666667    0.6254681647940075 C
   0.5663082433333333    0.9426523300000000    0.6254681647940075 C
   0.8996415766666667    0.2759856633333333    0.6254681647940075 C
   0.8996415766666669    0.6093189966666667    0.6254681647940075 C
   0.8996415766666666    0.9426523300000000    0.6254681647940075 C
   0.2452636966666667    0.2898105466666666    0.6254681647940075 C
   0.2452636966666668    0.6231438800000000    0.6254681647940075 C
   0.2452636966666668    0.9564772133333332    0.6254681647940075 C
   0.5785970300000000    0.2898105466666666    0.6254681647940075 C
   0.5785970300000000    0.6231438800000000    0.6254681647940075 C
   0.5785970300000003    0.9564772133333332    0.6254681647940075 C
   0.9119303633333333    0.2898105466666666    0.6254681647940075 C
   0.9119303633333332    0.6231438800000000    0.6254681647940075 C
   0.9119303633333333    0.9564772133333332    0.6254681647940075 C
   0.2575524833333334    0.3036354333333333    0.6254681647940075 C
   0.2575524833333334    0.6369687666666667    0.6254681647940075 C
   0.2575524833333334    0.9703021000000001    0.6254681647940075 C
   0.5908858166666667    0.3036354333333333    0.6254681647940075 C
   0.5908858166666668    0.6369687666666667    0.6254681647940075 C
   0.5908858166666666    0.9703021000000001    0.6254681647940075 C
   0.9242191500000000    0.3036354333333333    0.6254681647940075 C
   0.9242191500000001    0.6369687666666667    0.6254681647940075 C
   0.9242191499999999    0.9703021000000001    0.6254681647940075 C
   0.2698412700000000    0.3174603166666667    0.6254681647940075 C
   0.2698412700000001    0.6507936500000000    0.6254681647940075 C
   0.2698412700000001    0.9841269833333334    0.6254681647940075 C
   0.6031746033333333    0.3174603166666667    0.6254681647940075 C
   0.6031746033333333    0.6507936500000000    0.6254681647940075 C
   0.6031746033333334    0.9841269833333334    0.6254681647940075 C
   0.9365079366666667    0.3174603166666667    0.6254681647940075 C
   0.9365079366666665    0.6507936500000000    0.6254681647940075 C
   0.9365079366666664    0.9841269833333334    0.6254681647940075 C
   0.2821300566666667    0.3312852033333333    0.6254681647940075 C
   0.2821300566666667    0.6646185366666666    0.6254681647940075 C
   0.2821300566666666    0.9979518700000002    0.6254681647940075 C
   0.6154633900000001    0.3312852033333333    0.6254681647940075 C
   0.6154633899999999    0.6646185366666666    0.6254681647940075 C
   0.6154633900000002    0.9979518700000002    0.6254681647940075 C
   0.9487967233333333    0.3312852033333333    0.6254681647940075 C
   0.9487967233333332    0.6646185366666666    0.6254681647940075 C
   0.9487967233333332    0.9979518700000002    0.6254681647940075 C
   0.0256016400000000    0.0010240666666667    0.6254681647940075 C
   0.0256016400000000    0.3343574000000000    0.6254681647940075 C
   0.0256016400000000    0.6676907333333333    0.6254681647940075 C
   0.3589349733333333    0.0010240666666667    0.6254681647940075 C
   0.3589349733333332    0.3343574000000000    0.6254681647940075 C
   0.3589349733333334    0.6676907333333333    0.6254681647940075 C
   0.6922683066666665    0.0010240666666667    0.6254681647940075 C
   0.6922683066666665    0.3343574000000000    0.6254681647940075 C
   0.6922683066666667    0.6676907333333333    0.6254681647940075 C
   0.0378904233333333    0.0148489500000000    0.6254681647940075 C
   0.0378904233333334    0.3481822833333333    0.6254681647940075 C
   0.0378904233333333    0.6815156166666667    0.6254681647940075 C
   0.3712237566666666    0.0148489500000000    0.6254681647940075 C
   0.3712237566666666    0.3481822833333333    0.6254681647940075 C
   0.3712237566666666    0.6815156166666667    0.6254681647940075 C
   0.7045570899999999    0.0148489500000000    0.6254681647940075 C
   0.7045570899999999    0.3481822833333333    0.6254681647940075 C
   0.7045570899999998    0.6815156166666667    0.6254681647940075 C
   0.0501792100000000    0.0286738366666667    0.6254681647940075 C
   0.0501792100000001    0.3620071700000000    0.6254681647940075 C
   0.0501792099999999    0.6953405033333335    0.6254681647940075 C
   0.3835125433333333    0.0286738366666667    0.6254681647940075 C
   0.3835125433333333    0.3620071700000000    0.6254681647940075 C
   0.3835125433333333    0.6953405033333335    0.6254681647940075 C
   0.7168458766666667    0.0286738366666667    0.6254681647940075 C
   0.7168458766666665    0.3620071700000000    0.6254681647940075 C
   0.7168458766666665    0.6953405033333335    0.6254681647940075 C
   0.0624679966666667    0.0424987200000000    0.6254681647940075 C
   0.0624679966666667    0.3758320533333334    0.6254681647940075 C
   0.0624679966666667    0.7091653866666667    0.6254681647940075 C
   0.3958013300000000    0.0424987200000000    0.6254681647940075 C
   0.3958013300000000    0.3758320533333334    0.6254681647940075 C
   0.3958013300000001    0.7091653866666667    0.6254681647940075 C
   0.7291346633333332    0.0424987200000000    0.6254681647940075 C
   0.7291346633333333    0.3758320533333334    0.6254681647940075 C
   0.7291346633333333    0.7091653866666667    0.6254681647940075 C
   0.0747567833333333    0.0563236033333333    0.6254681647940075 C
   0.0747567833333334    0.3896569366666667    0.6254681647940075 C
   0.0747567833333334    0.7229902700000000    0.6254681647940075 C
   0.4080901166666666    0.0563236033333333    0.6254681647940075 C
   0.4080901166666666    0.3896569366666667    0.6254681647940075 C
   0.4080901166666668    0.7229902700000000    0.6254681647940075 C
   0.7414234499999998    0.0563236033333333    0.6254681647940075 C
   0.7414234500000000    0.3896569366666667    0.6254681647940075 C
   0.7414234500000001    0.7229902700000000    0.6254681647940075 C
   0.0870455700000000    0.0701484900000000    0.6254681647940075 C
   0.0870455700000000    0.4034818233333334    0.6254681647940075 C
   0.0870455700000001    0.7368151566666666    0.6254681647940075 C
   0.4203789033333333    0.0701484900000000    0.6254681647940075 C
   0.4203789033333331    0.4034818233333334    0.6254681647940075 C
   0.4203789033333334    0.7368151566666666    0.6254681647940075 C
   0.7537122366666666    0.0701484900000000    0.6254681647940075 C
   0.7537122366666665    0.4034818233333334    0.6254681647940075 C
   0.7537122366666666    0.7368151566666666    0.6254681647940075 C
   0.0993343566666667    0.0839733733333333    0.6254681647940075 C
   0.0993343566666667    0.4173067066666667    0.6254681647940075 C
   0.0993343566666667    0.7506400400000001    0.6254681647940075 C
   0.4326676899999999    0.0839733733333333    0.6254681647940075 C
   0.4326676899999999    0.4173067066666667    0.6254681647940075 C
   0.4326676900000001    0.7506400400000001    0.6254681647940075 C
   0.7660010233333331    0.0839733733333333    0.6254681647940075 C
   0.7660010233333332    0.4173067066666667    0.6254681647940075 C
   0.7660010233333332    0.7506400400000001    0.6254681647940075 C
   0.1116231433333333    0.0977982600000000    0.6254681647940075 C
   0.1116231433333334    0.4311315933333333    0.6254681647940075 C
   0.1116231433333333    0.7644649266666667    0.6254681647940075 C
   0.4449564766666667    0.0977982600000000    0.6254681647940075 C
   0.4449564766666667    0.4311315933333333    0.6254681647940075 C
   0.4449564766666668    0.7644649266666667    0.6254681647940075 C
   0.7782898100000000    0.0977982600000000    0.6254681647940075 C
   0.7782898100000000    0.4311315933333333    0.6254681647940075 C
   0.7782898099999997    0.7644649266666667    0.6254681647940075 C
   0.1239119300000000    0.1116231433333334    0.6254681647940075 C
   0.1239119300000000    0.4449564766666667    0.6254681647940075 C
   0.1239119300000001    0.7782898100000000    0.6254681647940075 C
   0.4572452633333333    0.1116231433333334    0.6254681647940075 C
   0.4572452633333333    0.4449564766666667    0.6254681647940075 C
   0.4572452633333335    0.7782898100000000    0.6254681647940075 C
   0.7905785966666664    0.1116231433333334    0.6254681647940075 C
   0.7905785966666666    0.4449564766666667    0.6254681647940075 C
   0.7905785966666667    0.7782898100000000    0.6254681647940075 C
   0.1362007166666667    0.1254480300000000    0.6254681647940075 C
   0.1362007166666667    0.4587813633333334    0.6254681647940075 C
   0.1362007166666667    0.7921146966666666    0.6254681647940075 C
   0.4695340500000000    0.1254480300000000    0.6254681647940075 C
   0.4695340500000000    0.4587813633333334    0.6254681647940075 C
   0.4695340500000001    0.7921146966666666    0.6254681647940075 C
   0.8028673833333334    0.1254480300000000    0.6254681647940075 C
   0.8028673833333333    0.4587813633333334    0.6254681647940075 C
   0.8028673833333334    0.7921146966666666    0.6254681647940075 C
   0.1484895033333334    0.1392729133333333    0.6254681647940075 C
   0.1484895033333334    0.4726062466666667    0.6254681647940075 C
   0.1484895033333335    0.8059395799999999    0.6254681647940075 C
   0.4818228366666666    0.1392729133333333    0.6254681647940075 C
   0.4818228366666666    0.4726062466666667    0.6254681647940075 C
   0.4818228366666668    0.8059395799999999    0.6254681647940075 C
   0.8151561699999998    0.1392729133333333    0.6254681647940075 C
   0.8151561700000000    0.4726062466666667    0.6254681647940075 C
   0.8151561700000000    0.8059395799999999    0.6254681647940075 C
   0.1607782900000000    0.1530977966666667    0.6254681647940075 C
   0.1607782900000001    0.4864311300000000    0.6254681647940075 C
   0.1607782900000001    0.8197644633333335    0.6254681647940075 C
   0.4941116233333332    0.1530977966666667    0.6254681647940075 C
   0.4941116233333332    0.4864311300000000    0.6254681647940075 C
   0.4941116233333334    0.8197644633333335    0.6254681647940075 C
   0.8274449566666665    0.1530977966666667    0.6254681647940075 C
   0.8274449566666667    0.4864311300000000    0.6254681647940075 C
   0.8274449566666665    0.8197644633333335    0.6254681647940075 C
   0.1730670766666667    0.1669226833333333    0.6254681647940075 C
   0.1730670766666667    0.5002560166666666    0.6254681647940075 C
   0.1730670766666667    0.8335893500000000    0.6254681647940075 C
   0.5064004099999999    0.1669226833333333    0.6254681647940075 C
   0.5064004099999998    0.5002560166666666    0.6254681647940075 C
   0.5064004100000001    0.8335893500000000    0.6254681647940075 C
   0.8397337433333332    0.1669226833333333    0.6254681647940075 C
   0.8397337433333333    0.5002560166666666    0.6254681647940075 C
   0.8397337433333334    0.8335893500000000    0.6254681647940075 C
   0.1853558633333333    0.1807475666666666    0.6254681647940075 C
   0.1853558633333334    0.5140809000000000    0.6254681647940075 C
   0.1853558633333335    0.8474142333333333    0.6254681647940075 C
   0.5186891966666666    0.1807475666666666    0.6254681647940075 C
   0.5186891966666666    0.5140809000000000    0.6254681647940075 C
   0.5186891966666669    0.8474142333333333    0.6254681647940075 C
   0.8520225299999998    0.1807475666666666    0.6254681647940075 C
   0.8520225300000001    0.5140809000000000    0.6254681647940075 C
   0.8520225300000002    0.8474142333333333    0.6254681647940075 C
   0.1976446500000001    0.1945724533333333    0.6254681647940075 C
   0.1976446500000001    0.5279057866666667    0.6254681647940075 C
   0.1976446500000001    0.8612391200000000    0.6254681647940075 C
   0.5309779833333333    0.1945724533333333    0.6254681647940075 C
   0.5309779833333333    0.5279057866666667    0.6254681647940075 C
   0.5309779833333335    0.8612391200000000    0.6254681647940075 C
   0.8643113166666667    0.1945724533333333    0.6254681647940075 C
   0.8643113166666667    0.5279057866666667    0.6254681647940075 C
   0.8643113166666665    0.8612391200000000    0.6254681647940075 C
   0.2099334366666666    0.2083973366666667    0.6254681647940075 C
   0.2099334366666668    0.5417306700000000    0.6254681647940075 C
   0.2099334366666667    0.8750640033333333    0.6254681647940075 C
   0.5432667700000000    0.2083973366666667    0.6254681647940075 C
   0.5432667700000000    0.5417306700000000    0.6254681647940075 C
   0.5432667700000001    0.8750640033333333    0.6254681647940075 C
   0.8766001033333332    0.2083973366666667    0.6254681647940075 C
   0.8766001033333332    0.5417306700000000    0.6254681647940075 C
   0.8766001033333333    0.8750640033333333    0.6254681647940075 C
   0.2222222222222223    0.2222222222222222    0.6254681647940075 C
   0.2222222222222222    0.5555555555555556    0.6254681647940075 C
   0.2222222222222223    0.8888888888888888    0.6254681647940075 C
   0.5555555555555552    0.2222222222222222    0.6254681647940075 C
   0.5555555555555554    0.5555555555555556    0.6254681647940075 C
   0.5555555555555558    0.8888888888888888    0.6254681647940075 C
   0.8888888888888888    0.2222222222222222    0.6254681647940075 C
   0.8888888888888890    0.5555555555555556    0.6254681647940075 C
   0.8888888888888891    0.8888888888888888    0.6254681647940075 C
   0.2345110100000000    0.2360471066666667    0.6254681647940075 C
   0.2345110100000000    0.5693804400000000    0.6254681647940075 C
   0.2345110100000000    0.9027137733333334    0.6254681647940075 C
   0.5678443433333333    0.2360471066666667    0.6254681647940075 C
   0.5678443433333333    0.5693804400000000    0.6254681647940075 C
   0.5678443433333333    0.9027137733333334    0.6254681647940075 C
   0.9011776766666666    0.2360471066666667    0.6254681647940075 C
   0.9011776766666667    0.5693804400000000    0.6254681647940075 C
   0.9011776766666668    0.9027137733333334    0.6254681647940075 C
   0.2467997966666667    0.2498719933333333    0.6254681647940075 C
   0.2467997966666668    0.5832053266666667    0.6254681647940075 C
   0.2467997966666667    0.9165386599999998    0.6254681647940075 C
   0.5801331299999999    0.2498719933333333    0.6254681647940075 C
   0.5801331299999999    0.5832053266666667    0.6254681647940075 C
   0.5801331300000002    0.9165386599999998    0.6254681647940075 C
   0.9134664633333333    0.2498719933333333    0.6254681647940075 C
   0.9134664633333333    0.5832053266666667    0.6254681647940075 C
   0.9134664633333333    0.9165386599999998    0.6254681647940075 C
   0.2590885833333334    0.2636968766666666    0.6254681647940075 C
   0.2590885833333334    0.5970302100000000    0.6254681647940075 C
   0.2590885833333334    0.9303635433333335    0.6254681647940075 C
   0.5924219166666665    0.2636968766666666    0.6254681647940075 C
   0.5924219166666667    0.5970302100000000    0.6254681647940075 C
   0.5924219166666665    0.9303635433333335    0.6254681647940075 C
   0.9257552499999999    0.2636968766666666    0.6254681647940075 C
   0.9257552499999998    0.5970302100000000    0.6254681647940075 C
   0.9257552499999998    0.9303635433333335    0.6254681647940075 C
   0.2713773666666667    0.2775217600000000    0.6254681647940075 C
   0.2713773666666668    0.6108550933333332    0.6254681647940075 C
   0.2713773666666668    0.9441884266666668    0.6254681647940075 C
   0.6047106999999999    0.2775217600000000    0.6254681647940075 C
   0.6047107000000000    0.6108550933333332    0.6254681647940075 C
   0.6047107000000002    0.9441884266666668    0.6254681647940075 C
   0.9380440333333333    0.2775217600000000    0.6254681647940075 C
   0.9380440333333334    0.6108550933333332    0.6254681647940075 C
   0.9380440333333334    0.9441884266666668    0.6254681647940075 C
   0.2836661533333333    0.2913466466666667    0.6254681647940075 C
   0.2836661533333333    0.6246799800000000    0.6254681647940075 C
   0.2836661533333333    0.9580133133333333    0.6254681647940075 C
   0.6169994866666668    0.2913466466666667    0.6254681647940075 C
   0.6169994866666666    0.6246799800000000    0.6254681647940075 C
   0.6169994866666668    0.9580133133333333    0.6254681647940075 C
   0.9503328200000000    0.2913466466666667    0.6254681647940075 C
   0.9503328200000000    0.6246799800000000    0.6254681647940075 C
   0.9503328200000003    0.9580133133333333    0.6254681647940075 C
   0.2959549400000000    0.3051715300000001    0.6254681647940075 C
   0.2959549400000002    0.6385048633333333    0.6254681647940075 C
   0.2959549400000001    0.9718381966666666    0.6254681647940075 C
   0.6292882733333333    0.3051715300000001    0.6254681647940075 C
   0.6292882733333333    0.6385048633333333    0.6254681647940075 C
   0.6292882733333335    0.9718381966666666    0.6254681647940075 C
   0.9626216066666666    0.3051715300000001    0.6254681647940075 C
   0.9626216066666666    0.6385048633333333    0.6254681647940075 C
   0.9626216066666665    0.9718381966666666    0.6254681647940075 C
   0.3082437266666667    0.3189964166666667    0.6254681647940075 C
   0.3082437266666667    0.6523297499999999    0.6254681647940075 C
   0.3082437266666667    0.9856630833333333    0.6254681647940075 C
   0.6415770599999998    0.3189964166666667    0.6254681647940075 C
   0.6415770599999998    0.6523297499999999    0.6254681647940075 C
   0.6415770600000001    0.9856630833333333    0.6254681647940075 C
   0.9749103933333332    0.3189964166666667    0.6254681647940075 C
   0.9749103933333331    0.6523297499999999    0.6254681647940075 C
   0.9749103933333332    0.9856630833333333    0.6254681647940075 C
   0.3205325133333334    0.3328213000000000    0.6254681647940075 C
   0.3205325133333335    0.6661546333333332    0.6254681647940075 C
   0.3205325133333335    0.9994879666666666    0.6254681647940075 C
   0.6538658466666667    0.3328213000000000    0.6254681647940075 C
   0.6538658466666667    0.6661546333333332    0.6254681647940075 C
   0.6538658466666666    0.9994879666666666    0.6254681647940075 C
   0.9871991800000000    0.3328213000000000    0.6254681647940075 C
   0.9871991799999998    0.6661546333333332    0.6254681647940075 C
   0.9871991799999996    0.9994879666666666    0.6254681647940075 C
   0.0640040966666667    0.0025601633333333    0.6254681647940075 C
   0.0640040966666666    0.3358934966666667    0.6254681647940075 C
   0.0640040966666667    0.6692268300000001    0.6254681647940075 C
   0.3973374300000000    0.0025601633333333    0.6254681647940075 C
   0.3973374300000000    0.3358934966666667    0.6254681647940075 C
   0.3973374299999999    0.6692268300000001    0.6254681647940075 C
   0.7306707633333331    0.0025601633333333    0.6254681647940075 C
   0.7306707633333333    0.3358934966666667    0.6254681647940075 C
   0.7306707633333334    0.6692268300000001    0.6254681647940075 C
   0.0762928833333333    0.0163850500000000    0.6254681647940075 C
   0.0762928833333334    0.3497183833333333    0.6254681647940075 C
   0.0762928833333333    0.6830517166666666    0.6254681647940075 C
   0.4096262166666666    0.0163850500000000    0.6254681647940075 C
   0.4096262166666666    0.3497183833333333    0.6254681647940075 C
   0.4096262166666666    0.6830517166666666    0.6254681647940075 C
   0.7429595499999999    0.0163850500000000    0.6254681647940075 C
   0.7429595499999998    0.3497183833333333    0.6254681647940075 C
   0.7429595499999998    0.6830517166666666    0.6254681647940075 C
   0.0885816700000000    0.0302099333333333    0.6254681647940075 C
   0.0885816700000000    0.3635432666666667    0.6254681647940075 C
   0.0885816700000000    0.6968766000000000    0.6254681647940075 C
   0.4219150033333333    0.0302099333333333    0.6254681647940075 C
   0.4219150033333334    0.3635432666666667    0.6254681647940075 C
   0.4219150033333333    0.6968766000000000    0.6254681647940075 C
   0.7552483366666665    0.0302099333333333    0.6254681647940075 C
   0.7552483366666666    0.3635432666666667    0.6254681647940075 C
   0.7552483366666667    0.6968766000000000    0.6254681647940075 C
   0.1008704566666667    0.0440348166666667    0.6254681647940075 C
   0.1008704566666667    0.3773681500000000    0.6254681647940075 C
   0.1008704566666667    0.7107014833333333    0.6254681647940075 C
   0.4342037900000001    0.0440348166666667    0.6254681647940075 C
   0.4342037900000000    0.3773681500000000    0.6254681647940075 C
   0.4342037900000001    0.7107014833333333    0.6254681647940075 C
   0.7675371233333333    0.0440348166666667    0.6254681647940075 C
   0.7675371233333333    0.3773681500000000    0.6254681647940075 C
   0.7675371233333331    0.7107014833333333    0.6254681647940075 C
   0.1131592433333334    0.0578597033333333    0.6254681647940075 C
   0.1131592433333334    0.3911930366666667    0.6254681647940075 C
   0.1131592433333333    0.7245263700000000    0.6254681647940075 C
   0.4464925766666666    0.0578597033333333    0.6254681647940075 C
   0.4464925766666664    0.3911930366666667    0.6254681647940075 C
   0.4464925766666666    0.7245263700000000    0.6254681647940075 C
   0.7798259099999999    0.0578597033333333    0.6254681647940075 C
   0.7798259100000000    0.3911930366666667    0.6254681647940075 C
   0.7798259099999998    0.7245263700000000    0.6254681647940075 C
   0.1254480300000000    0.0716845866666667    0.6254681647940075 C
   0.1254480300000000    0.4050179200000000    0.6254681647940075 C
   0.1254480300000000    0.7383512533333334    0.6254681647940075 C
   0.4587813633333334    0.0716845866666667    0.6254681647940075 C
   0.4587813633333332    0.4050179200000000    0.6254681647940075 C
   0.4587813633333334    0.7383512533333334    0.6254681647940075 C
   0.7921146966666665    0.0716845866666667    0.6254681647940075 C
   0.7921146966666666    0.4050179200000000    0.6254681647940075 C
   0.7921146966666665    0.7383512533333334    0.6254681647940075 C
   0.1377368166666667    0.0855094733333333    0.6254681647940075 C
   0.1377368166666667    0.4188428066666667    0.6254681647940075 C
   0.1377368166666667    0.7521761400000001    0.6254681647940075 C
   0.4710701500000000    0.0855094733333333    0.6254681647940075 C
   0.4710701499999998    0.4188428066666667    0.6254681647940075 C
   0.4710701500000000    0.7521761400000001    0.6254681647940075 C
   0.8044034833333334    0.0855094733333333    0.6254681647940075 C
   0.8044034833333332    0.4188428066666667    0.6254681647940075 C
   0.8044034833333333    0.7521761400000001    0.6254681647940075 C
   0.1500256000000001    0.0993343566666667    0.6254681647940075 C
   0.1500256000000001    0.4326676900000000    0.6254681647940075 C
   0.1500256000000001    0.7660010233333333    0.6254681647940075 C
   0.4833589333333334    0.0993343566666667    0.6254681647940075 C
   0.4833589333333333    0.4326676900000000    0.6254681647940075 C
   0.4833589333333335    0.7660010233333333    0.6254681647940075 C
   0.8166922666666666    0.0993343566666667    0.6254681647940075 C
   0.8166922666666666    0.4326676900000000    0.6254681647940075 C
   0.8166922666666667    0.7660010233333333    0.6254681647940075 C
   0.1623143866666667    0.1131592433333333    0.6254681647940075 C
   0.1623143866666668    0.4464925766666666    0.6254681647940075 C
   0.1623143866666667    0.7798259100000001    0.6254681647940075 C
   0.4956477200000000    0.1131592433333333    0.6254681647940075 C
   0.4956477200000001    0.4464925766666666    0.6254681647940075 C
   0.4956477200000000    0.7798259100000001    0.6254681647940075 C
   0.8289810533333333    0.1131592433333333    0.6254681647940075 C
   0.8289810533333329    0.4464925766666666    0.6254681647940075 C
   0.8289810533333331    0.7798259100000001    0.6254681647940075 C
   0.1746031733333334    0.1269841266666666    0.6254681647940075 C
   0.1746031733333334    0.4603174600000000    0.6254681647940075 C
   0.1746031733333334    0.7936507933333334    0.6254681647940075 C
   0.5079365066666666    0.1269841266666666    0.6254681647940075 C
   0.5079365066666667    0.4603174600000000    0.6254681647940075 C
   0.5079365066666667    0.7936507933333334    0.6254681647940075 C
   0.8412698399999999    0.1269841266666666    0.6254681647940075 C
   0.8412698399999997    0.4603174600000000    0.6254681647940075 C
   0.8412698399999997    0.7936507933333334    0.6254681647940075 C
   0.1868919600000001    0.1408090133333333    0.6254681647940075 C
   0.1868919600000001    0.4741423466666667    0.6254681647940075 C
   0.1868919600000001    0.8074756799999999    0.6254681647940075 C
   0.5202252933333334    0.1408090133333333    0.6254681647940075 C
   0.5202252933333333    0.4741423466666667    0.6254681647940075 C
   0.5202252933333333    0.8074756799999999    0.6254681647940075 C
   0.8535586266666668    0.1408090133333333    0.6254681647940075 C
   0.8535586266666667    0.4741423466666667    0.6254681647940075 C
   0.8535586266666664    0.8074756799999999    0.6254681647940075 C
   0.1991807466666667    0.1546338966666667    0.6254681647940075 C
   0.1991807466666666    0.4879672300000000    0.6254681647940075 C
   0.1991807466666669    0.8213005633333332    0.6254681647940075 C
   0.5325140800000001    0.1546338966666667    0.6254681647940075 C
   0.5325140800000000    0.4879672300000000    0.6254681647940075 C
   0.5325140800000001    0.8213005633333332    0.6254681647940075 C
   0.8658474133333334    0.1546338966666667    0.6254681647940075 C
   0.8658474133333333    0.4879672300000000    0.6254681647940075 C
   0.8658474133333334    0.8213005633333332    0.6254681647940075 C
   0.2114695333333334    0.1684587800000000    0.6254681647940075 C
   0.2114695333333333    0.5017921133333334    0.6254681647940075 C
   0.2114695333333332    0.8351254466666665    0.6254681647940075 C
   0.5448028666666666    0.1684587800000000    0.6254681647940075 C
   0.5448028666666666    0.5017921133333334    0.6254681647940075 C
   0.5448028666666668    0.8351254466666665    0.6254681647940075 C
   0.8781361999999998    0.1684587800000000    0.6254681647940075 C
   0.8781361999999997    0.5017921133333334    0.6254681647940075 C
   0.8781361999999998    0.8351254466666665    0.6254681647940075 C
   0.2237583200000000    0.1822836666666666    0.6254681647940075 C
   0.2237583200000000    0.5156170000000000    0.6254681647940075 C
   0.2237583200000000    0.8489503333333334    0.6254681647940075 C
   0.5570916533333333    0.1822836666666666    0.6254681647940075 C
   0.5570916533333332    0.5156170000000000    0.6254681647940075 C
   0.5570916533333333    0.8489503333333334    0.6254681647940075 C
   0.8904249866666666    0.1822836666666666    0.6254681647940075 C
   0.8904249866666664    0.5156170000000000    0.6254681647940075 C
   0.8904249866666664    0.8489503333333334    0.6254681647940075 C
   0.2360471066666667    0.1961085500000000    0.6254681647940075 C
   0.2360471066666668    0.5294418833333333    0.6254681647940075 C
   0.2360471066666667    0.8627752166666668    0.6254681647940075 C
   0.5693804399999999    0.1961085500000000    0.6254681647940075 C
   0.5693804399999999    0.5294418833333333    0.6254681647940075 C
   0.5693804400000003    0.8627752166666668    0.6254681647940075 C
   0.9027137733333335    0.1961085500000000    0.6254681647940075 C
   0.9027137733333335    0.5294418833333333    0.6254681647940075 C
   0.9027137733333334    0.8627752166666668    0.6254681647940075 C
   0.2483358933333333    0.2099334366666667    0.6254681647940075 C
   0.2483358933333333    0.5432667700000000    0.6254681647940075 C
   0.2483358933333334    0.8766001033333333    0.6254681647940075 C
   0.5816692266666666    0.2099334366666667    0.6254681647940075 C
   0.5816692266666665    0.5432667700000000    0.6254681647940075 C
   0.5816692266666668    0.8766001033333333    0.6254681647940075 C
   0.9150025599999998    0.2099334366666667    0.6254681647940075 C
   0.9150025599999999    0.5432667700000000    0.6254681647940075 C
   0.9150025600000000    0.8766001033333333    0.6254681647940075 C
   0.2606246800000001    0.2237583200000000    0.6254681647940075 C
   0.2606246800000001    0.5570916533333333    0.6254681647940075 C
   0.2606246800000000    0.8904249866666666    0.6254681647940075 C
   0.5939580133333334    0.2237583200000000    0.6254681647940075 C
   0.5939580133333334    0.5570916533333333    0.6254681647940075 C
   0.5939580133333335    0.8904249866666666    0.6254681647940075 C
   0.9272913466666666    0.2237583200000000    0.6254681647940075 C
   0.9272913466666667    0.5570916533333333    0.6254681647940075 C
   0.9272913466666666    0.8904249866666666    0.6254681647940075 C
   0.2729134666666667    0.2375832066666667    0.6254681647940075 C
   0.2729134666666668    0.5709165399999999    0.6254681647940075 C
   0.2729134666666667    0.9042498733333334    0.6254681647940075 C
   0.6062468000000000    0.2375832066666667    0.6254681647940075 C
   0.6062468000000001    0.5709165399999999    0.6254681647940075 C
   0.6062467999999999    0.9042498733333334    0.6254681647940075 C
   0.9395801333333331    0.2375832066666667    0.6254681647940075 C
   0.9395801333333332    0.5709165399999999    0.6254681647940075 C
   0.9395801333333331    0.9042498733333334    0.6254681647940075 C
   0.2852022533333333    0.2514080900000000    0.6254681647940075 C
   0.2852022533333333    0.5847414233333333    0.6254681647940075 C
   0.2852022533333334    0.9180747566666666    0.6254681647940075 C
   0.6185355866666666    0.2514080900000000    0.6254681647940075 C
   0.6185355866666664    0.5847414233333333    0.6254681647940075 C
   0.6185355866666669    0.9180747566666666    0.6254681647940075 C
   0.9518689200000001    0.2514080900000000    0.6254681647940075 C
   0.9518689199999999    0.5847414233333333    0.6254681647940075 C
   0.9518689199999999    0.9180747566666666    0.6254681647940075 C
   0.2974910400000000    0.2652329733333333    0.6254681647940075 C
   0.2974910400000000    0.5985663066666667    0.6254681647940075 C
   0.2974910400000000    0.9318996399999999    0.6254681647940075 C
   0.6308243733333333    0.2652329733333333    0.6254681647940075 C
   0.6308243733333333    0.5985663066666667    0.6254681647940075 C
   0.6308243733333333    0.9318996399999999    0.6254681647940075 C
   0.9641577066666666    0.2652329733333333    0.6254681647940075 C
   0.9641577066666667    0.5985663066666667    0.6254681647940075 C
   0.9641577066666666    0.9318996399999999    0.6254681647940075 C
   0.3097798266666667    0.2790578600000000    0.6254681647940075 C
   0.3097798266666666    0.6123911933333334    0.6254681647940075 C
   0.3097798266666667    0.9457245266666667    0.6254681647940075 C
   0.6431131600000001    0.2790578600000000    0.6254681647940075 C
   0.6431131600000002    0.6123911933333334    0.6254681647940075 C
   0.6431131600000001    0.9457245266666667    0.6254681647940075 C
   0.9764464933333332    0.2790578600000000    0.6254681647940075 C
   0.9764464933333332    0.6123911933333334    0.6254681647940075 C
   0.9764464933333333    0.9457245266666667    0.6254681647940075 C
   0.3220686133333334    0.2928827433333334    0.6254681647940075 C
   0.3220686133333334    0.6262160766666667    0.6254681647940075 C
   0.3220686133333333    0.9595494100000000    0.6254681647940075 C
   0.6554019466666665    0.2928827433333334    0.6254681647940075 C
   0.6554019466666666    0.6262160766666667    0.6254681647940075 C
   0.6554019466666665    0.9595494100000000    0.6254681647940075 C
   0.9887352799999999    0.2928827433333334    0.6254681647940075 C
   0.9887352800000000    0.6262160766666667    0.6254681647940075 C
   0.9887352800000000    0.9595494100000000    0.6254681647940075 C
   0.0010240666666667    0.3067076300000000    0.6254681647940075 C
   0.0010240666666667    0.6400409633333333    0.6254681647940075 C
   0.0010240666666667    0.9733742966666667    0.6254681647940075 C
   0.3343574000000000    0.3067076300000000    0.6254681647940075 C
   0.3343574000000000    0.6400409633333333    0.6254681647940075 C
   0.3343574000000000    0.9733742966666667    0.6254681647940075 C
   0.6676907333333333    0.3067076300000000    0.6254681647940075 C
   0.6676907333333331    0.6400409633333333    0.6254681647940075 C
   0.6676907333333332    0.9733742966666667    0.6254681647940075 C
   0.0133128533333334    0.3205325133333334    0.6254681647940075 C
   0.0133128533333334    0.6538658466666666    0.6254681647940075 C
   0.0133128533333334    0.9871991800000001    0.6254681647940075 C
   0.3466461866666667    0.3205325133333334    0.6254681647940075 C
   0.3466461866666667    0.6538658466666666    0.6254681647940075 C
   0.3466461866666667    0.9871991800000001    0.6254681647940075 C
   0.6799795199999999    0.3205325133333334    0.6254681647940075 C
   0.6799795200000001    0.6538658466666666    0.6254681647940075 C
   0.6799795200000002    0.9871991800000001    0.6254681647940075 C
   0.1024065533333334    0.0040962633333333    0.6254681647940075 C
   0.1024065533333333    0.3374295966666667    0.6254681647940075 C
   0.1024065533333334    0.6707629300000000    0.6254681647940075 C
   0.4357398866666666    0.0040962633333333    0.6254681647940075 C
   0.4357398866666667    0.3374295966666667    0.6254681647940075 C
   0.4357398866666667    0.6707629300000000    0.6254681647940075 C
   0.7690732200000001    0.0040962633333333    0.6254681647940075 C
   0.7690732199999999    0.3374295966666667    0.6254681647940075 C
   0.7690732199999999    0.6707629300000000    0.6254681647940075 C
   0.1146953400000000    0.0179211466666667    0.6254681647940075 C
   0.1146953400000001    0.3512544800000000    0.6254681647940075 C
   0.1146953400000001    0.6845878133333334    0.6254681647940075 C
   0.4480286733333332    0.0179211466666667    0.6254681647940075 C
   0.4480286733333333    0.3512544800000000    0.6254681647940075 C
   0.4480286733333333    0.6845878133333334    0.6254681647940075 C
   0.7813620066666667    0.0179211466666667    0.6254681647940075 C
   0.7813620066666667    0.3512544800000000    0.6254681647940075 C
   0.7813620066666666    0.6845878133333334    0.6254681647940075 C
   0.1269841266666667    0.0317460333333333    0.6254681647940075 C
   0.1269841266666668    0.3650793666666666    0.6254681647940075 C
   0.1269841266666666    0.6984127000000002    0.6254681647940075 C
   0.4603174599999999    0.0317460333333333    0.6254681647940075 C
   0.4603174600000000    0.3650793666666666    0.6254681647940075 C
   0.4603174600000000    0.6984127000000002    0.6254681647940075 C
   0.7936507933333332    0.0317460333333333    0.6254681647940075 C
   0.7936507933333332    0.3650793666666666    0.6254681647940075 C
   0.7936507933333331    0.6984127000000002    0.6254681647940075 C
   0.1392729133333333    0.0455709166666667    0.6254681647940075 C
   0.1392729133333334    0.3789042499999999    0.6254681647940075 C
   0.1392729133333334    0.7122375833333333    0.6254681647940075 C
   0.4726062466666666    0.0455709166666667    0.6254681647940075 C
   0.4726062466666667    0.3789042499999999    0.6254681647940075 C
   0.4726062466666667    0.7122375833333333    0.6254681647940075 C
   0.8059395799999999    0.0455709166666667    0.6254681647940075 C
   0.8059395799999998    0.3789042499999999    0.6254681647940075 C
   0.8059395799999999    0.7122375833333333    0.6254681647940075 C
   0.1515617000000000    0.0593958000000000    0.6254681647940075 C
   0.1515617000000000    0.3927291333333334    0.6254681647940075 C
   0.1515616999999999    0.7260624666666667    0.6254681647940075 C
   0.4848950333333333    0.0593958000000000    0.6254681647940075 C
   0.4848950333333334    0.3927291333333334    0.6254681647940075 C
   0.4848950333333334    0.7260624666666667    0.6254681647940075 C
   0.8182283666666665    0.0593958000000000    0.6254681647940075 C
   0.8182283666666668    0.3927291333333334    0.6254681647940075 C
   0.8182283666666667    0.7260624666666667    0.6254681647940075 C
   0.1638504866666667    0.0732206866666667    0.6254681647940075 C
   0.1638504866666667    0.4065540200000000    0.6254681647940075 C
   0.1638504866666667    0.7398873533333333    0.6254681647940075 C
   0.4971838200000001    0.0732206866666667    0.6254681647940075 C
   0.4971838200000001    0.4065540200000000    0.6254681647940075 C
   0.4971838200000001    0.7398873533333333    0.6254681647940075 C
   0.8305171533333332    0.0732206866666667    0.6254681647940075 C
   0.8305171533333334    0.4065540200000000    0.6254681647940075 C
   0.8305171533333334    0.7398873533333333    0.6254681647940075 C
   0.1761392733333334    0.0870455700000000    0.6254681647940075 C
   0.1761392733333333    0.4203789033333333    0.6254681647940075 C
   0.1761392733333334    0.7537122366666666    0.6254681647940075 C
   0.5094726066666666    0.0870455700000000    0.6254681647940075 C
   0.5094726066666667    0.4203789033333333    0.6254681647940075 C
   0.5094726066666668    0.7537122366666666    0.6254681647940075 C
   0.8428059400000000    0.0870455700000000    0.6254681647940075 C
   0.8428059399999996    0.4203789033333333    0.6254681647940075 C
   0.8428059400000000    0.7537122366666666    0.6254681647940075 C
   0.1884280600000000    0.1008704566666667    0.6254681647940075 C
   0.1884280600000000    0.4342037900000000    0.6254681647940075 C
   0.1884280600000001    0.7675371233333333    0.6254681647940075 C
   0.5217613933333334    0.1008704566666667    0.6254681647940075 C
   0.5217613933333334    0.4342037900000000    0.6254681647940075 C
   0.5217613933333333    0.7675371233333333    0.6254681647940075 C
   0.8550947266666666    0.1008704566666667    0.6254681647940075 C
   0.8550947266666667    0.4342037900000000    0.6254681647940075 C
   0.8550947266666661    0.7675371233333333    0.6254681647940075 C
   0.2007168466666667    0.1146953400000000    0.6254681647940075 C
   0.2007168466666667    0.4480286733333333    0.6254681647940075 C
   0.2007168466666666    0.7813620066666667    0.6254681647940075 C
   0.5340501800000002    0.1146953400000000    0.6254681647940075 C
   0.5340501800000000    0.4480286733333333    0.6254681647940075 C
   0.5340501800000000    0.7813620066666667    0.6254681647940075 C
   0.8673835133333334    0.1146953400000000    0.6254681647940075 C
   0.8673835133333332    0.4480286733333333    0.6254681647940075 C
   0.8673835133333333    0.7813620066666667    0.6254681647940075 C
   0.2130056333333334    0.1285202266666667    0.6254681647940075 C
   0.2130056333333334    0.4618535600000000    0.6254681647940075 C
   0.2130056333333334    0.7951868933333334    0.6254681647940075 C
   0.5463389666666666    0.1285202266666667    0.6254681647940075 C
   0.5463389666666667    0.4618535600000000    0.6254681647940075 C
   0.5463389666666668    0.7951868933333334    0.6254681647940075 C
   0.8796723000000000    0.1285202266666667    0.6254681647940075 C
   0.8796723000000001    0.4618535600000000    0.6254681647940075 C
   0.8796723000000000    0.7951868933333334    0.6254681647940075 C
   0.2252944200000000    0.1423451100000000    0.6254681647940075 C
   0.2252944199999999    0.4756784433333333    0.6254681647940075 C
   0.2252944200000002    0.8090117766666666    0.6254681647940075 C
   0.5586277533333335    0.1423451100000000    0.6254681647940075 C
   0.5586277533333333    0.4756784433333333    0.6254681647940075 C
   0.5586277533333334    0.8090117766666666    0.6254681647940075 C
   0.8919610866666666    0.1423451100000000    0.6254681647940075 C
   0.8919610866666663    0.4756784433333333    0.6254681647940075 C
   0.8919610866666667    0.8090117766666666    0.6254681647940075 C
   0.2375832066666667    0.1561699933333333    0.6254681647940075 C
   0.2375832066666667    0.4895033266666667    0.6254681647940075 C
   0.2375832066666666    0.8228366600000000    0.6254681647940075 C
   0.5709165400000000    0.1561699933333333    0.6254681647940075 C
   0.5709165400000001    0.4895033266666667    0.6254681647940075 C
   0.5709165400000000    0.8228366600000000    0.6254681647940075 C
   0.9042498733333331    0.1561699933333333    0.6254681647940075 C
   0.9042498733333331    0.4895033266666667    0.6254681647940075 C
   0.9042498733333331    0.8228366600000000    0.6254681647940075 C
   0.2498719933333333    0.1699948800000000    0.6254681647940075 C
   0.2498719933333333    0.5033282133333333    0.6254681647940075 C
   0.2498719933333332    0.8366615466666667    0.6254681647940075 C
   0.5832053266666668    0.1699948800000000    0.6254681647940075 C
   0.5832053266666667    0.5033282133333333    0.6254681647940075 C
   0.5832053266666669    0.8366615466666667    0.6254681647940075 C
   0.9165386599999998    0.1699948800000000    0.6254681647940075 C
   0.9165386599999999    0.5033282133333333    0.6254681647940075 C
   0.9165386599999997    0.8366615466666667    0.6254681647940075 C
   0.2621607766666667    0.1838197633333334    0.6254681647940075 C
   0.2621607766666667    0.5171530966666668    0.6254681647940075 C
   0.2621607766666667    0.8504864300000000    0.6254681647940075 C
   0.5954941100000000    0.1838197633333334    0.6254681647940075 C
   0.5954941100000001    0.5171530966666668    0.6254681647940075 C
   0.5954941100000001    0.8504864300000000    0.6254681647940075 C
   0.9288274433333333    0.1838197633333334    0.6254681647940075 C
   0.9288274433333332    0.5171530966666668    0.6254681647940075 C
   0.9288274433333331    0.8504864300000000    0.6254681647940075 C
   0.2744495633333334    0.1976446500000000    0.6254681647940075 C
   0.2744495633333333    0.5309779833333333    0.6254681647940075 C
   0.2744495633333333    0.8643113166666668    0.6254681647940075 C
   0.6077828966666667    0.1976446500000000    0.6254681647940075 C
   0.6077828966666666    0.5309779833333333    0.6254681647940075 C
   0.6077828966666666    0.8643113166666668    0.6254681647940075 C
   0.9411162300000000    0.1976446500000000    0.6254681647940075 C
   0.9411162300000000    0.5309779833333333    0.6254681647940075 C
   0.9411162299999999    0.8643113166666668    0.6254681647940075 C
   0.2867383500000000    0.2114695333333333    0.6254681647940075 C
   0.2867383500000000    0.5448028666666667    0.6254681647940075 C
   0.2867383500000000    0.8781362000000000    0.6254681647940075 C
   0.6200716833333332    0.2114695333333333    0.6254681647940075 C
   0.6200716833333332    0.5448028666666667    0.6254681647940075 C
   0.6200716833333334    0.8781362000000000    0.6254681647940075 C
   0.9534050166666667    0.2114695333333333    0.6254681647940075 C
   0.9534050166666668    0.5448028666666667    0.6254681647940075 C
   0.9534050166666667    0.8781362000000000    0.6254681647940075 C
   0.2990271366666666    0.2252944200000000    0.6254681647940075 C
   0.2990271366666666    0.5586277533333334    0.6254681647940075 C
   0.2990271366666667    0.8919610866666666    0.6254681647940075 C
   0.6323604700000001    0.2252944200000000    0.6254681647940075 C
   0.6323604700000000    0.5586277533333334    0.6254681647940075 C
   0.6323604700000000    0.8919610866666666    0.6254681647940075 C
   0.9656938033333333    0.2252944200000000    0.6254681647940075 C
   0.9656938033333333    0.5586277533333334    0.6254681647940075 C
   0.9656938033333332    0.8919610866666666    0.6254681647940075 C
   0.3113159233333333    0.2391193033333333    0.6254681647940075 C
   0.3113159233333332    0.5724526366666667    0.6254681647940075 C
   0.3113159233333332    0.9057859699999999    0.6254681647940075 C
   0.6446492566666666    0.2391193033333333    0.6254681647940075 C
   0.6446492566666665    0.5724526366666667    0.6254681647940075 C
   0.6446492566666669    0.9057859699999999    0.6254681647940075 C
   0.9779825899999998    0.2391193033333333    0.6254681647940075 C
   0.9779825899999999    0.5724526366666667    0.6254681647940075 C
   0.9779825900000000    0.9057859699999999    0.6254681647940075 C
   0.3236047100000001    0.2529441900000000    0.6254681647940075 C
   0.3236047100000000    0.5862775233333333    0.6254681647940075 C
   0.3236047100000001    0.9196108566666668    0.6254681647940075 C
   0.6569380433333335    0.2529441900000000    0.6254681647940075 C
   0.6569380433333335    0.5862775233333333    0.6254681647940075 C
   0.6569380433333335    0.9196108566666668    0.6254681647940075 C
   0.9902713766666666    0.2529441900000000    0.6254681647940075 C
   0.9902713766666665    0.5862775233333333    0.6254681647940075 C
   0.9902713766666665    0.9196108566666668    0.6254681647940075 C
   0.0025601633333333    0.2667690733333333    0.6254681647940075 C
   0.0025601633333334    0.6001024066666666    0.6254681647940075 C
   0.0025601633333333    0.9334357400000002    0.6254681647940075 C
   0.3358934966666666    0.2667690733333333    0.6254681647940075 C
   0.3358934966666666    0.6001024066666666    0.6254681647940075 C
   0.3358934966666666    0.9334357400000002    0.6254681647940075 C
   0.6692268299999998    0.2667690733333333    0.6254681647940075 C
   0.6692268299999998    0.6001024066666666    0.6254681647940075 C
   0.6692268299999999    0.9334357400000002    0.6254681647940075 C
   0.0148489500000000    0.2805939566666667    0.6254681647940075 C
   0.0148489500000000    0.6139272900000000    0.6254681647940075 C
   0.0148489500000000    0.9472606233333335    0.6254681647940075 C
   0.3481822833333332    0.2805939566666667    0.6254681647940075 C
   0.3481822833333332    0.6139272900000000    0.6254681647940075 C
   0.3481822833333333    0.9472606233333335    0.6254681647940075 C
   0.6815156166666665    0.2805939566666667    0.6254681647940075 C
   0.6815156166666665    0.6139272900000000    0.6254681647940075 C
   0.6815156166666667    0.9472606233333335    0.6254681647940075 C
   0.1408090133333333    0.0056323600000000    0.6254681647940075 C
   0.1408090133333333    0.3389656933333334    0.6254681647940075 C
   0.1408090133333334    0.6722990266666666    0.6254681647940075 C
   0.4741423466666666    0.0056323600000000    0.6254681647940075 C
   0.4741423466666665    0.3389656933333334    0.6254681647940075 C
   0.4741423466666667    0.6722990266666666    0.6254681647940075 C
   0.8074756799999999    0.0056323600000000    0.6254681647940075 C
   0.8074756799999998    0.3389656933333334    0.6254681647940075 C
   0.8074756799999997    0.6722990266666666    0.6254681647940075 C
   0.1530977966666667    0.0194572466666667    0.6254681647940075 C
   0.1530977966666666    0.3527905800000000    0.6254681647940075 C
   0.1530977966666668    0.6861239133333333    0.6254681647940075 C
   0.4864311299999999    0.0194572466666667    0.6254681647940075 C
   0.4864311299999999    0.3527905800000000    0.6254681647940075 C
   0.4864311300000001    0.6861239133333333    0.6254681647940075 C
   0.8197644633333332    0.0194572466666667    0.6254681647940075 C
   0.8197644633333333    0.3527905800000000    0.6254681647940075 C
   0.8197644633333332    0.6861239133333333    0.6254681647940075 C
   0.1653865833333333    0.0332821300000000    0.6254681647940075 C
   0.1653865833333333    0.3666154633333334    0.6254681647940075 C
   0.1653865833333334    0.6999487966666667    0.6254681647940075 C
   0.4987199166666667    0.0332821300000000    0.6254681647940075 C
   0.4987199166666665    0.3666154633333334    0.6254681647940075 C
   0.4987199166666667    0.6999487966666667    0.6254681647940075 C
   0.8320532500000001    0.0332821300000000    0.6254681647940075 C
   0.8320532500000000    0.3666154633333334    0.6254681647940075 C
   0.8320532500000001    0.6999487966666667    0.6254681647940075 C
   0.1776753700000001    0.0471070133333333    0.6254681647940075 C
   0.1776753700000001    0.3804403466666667    0.6254681647940075 C
   0.1776753700000001    0.7137736800000000    0.6254681647940075 C
   0.5110087033333334    0.0471070133333333    0.6254681647940075 C
   0.5110087033333334    0.3804403466666667    0.6254681647940075 C
   0.5110087033333333    0.7137736800000000    0.6254681647940075 C
   0.8443420366666666    0.0471070133333333    0.6254681647940075 C
   0.8443420366666665    0.3804403466666667    0.6254681647940075 C
   0.8443420366666665    0.7137736800000000    0.6254681647940075 C
   0.1899641566666667    0.0609319000000000    0.6254681647940075 C
   0.1899641566666666    0.3942652333333334    0.6254681647940075 C
   0.1899641566666668    0.7275985666666667    0.6254681647940075 C
   0.5232974899999999    0.0609319000000000    0.6254681647940075 C
   0.5232974899999999    0.3942652333333334    0.6254681647940075 C
   0.5232974900000000    0.7275985666666667    0.6254681647940075 C
   0.8566308233333333    0.0609319000000000    0.6254681647940075 C
   0.8566308233333333    0.3942652333333334    0.6254681647940075 C
   0.8566308233333332    0.7275985666666667    0.6254681647940075 C
   0.2022529433333333    0.0747567833333333    0.6254681647940075 C
   0.2022529433333334    0.4080901166666667    0.6254681647940075 C
   0.2022529433333333    0.7414234500000001    0.6254681647940075 C
   0.5355862766666666    0.0747567833333333    0.6254681647940075 C
   0.5355862766666666    0.4080901166666667    0.6254681647940075 C
   0.5355862766666668    0.7414234500000001    0.6254681647940075 C
   0.8689196100000000    0.0747567833333333    0.6254681647940075 C
   0.8689196100000001    0.4080901166666667    0.6254681647940075 C
   0.8689196100000001    0.7414234500000001    0.6254681647940075 C
   0.2145417300000000    0.0885816700000000    0.6254681647940075 C
   0.2145417300000001    0.4219150033333334    0.6254681647940075 C
   0.2145417300000000    0.7552483366666668    0.6254681647940075 C
   0.5478750633333332    0.0885816700000000    0.6254681647940075 C
   0.5478750633333332    0.4219150033333334    0.6254681647940075 C
   0.5478750633333336    0.7552483366666668    0.6254681647940075 C
   0.8812083966666667    0.0885816700000000    0.6254681647940075 C
   0.8812083966666666    0.4219150033333334    0.6254681647940075 C
   0.8812083966666667    0.7552483366666668    0.6254681647940075 C
   0.2268305166666667    0.1024065533333333    0.6254681647940075 C
   0.2268305166666667    0.4357398866666666    0.6254681647940075 C
   0.2268305166666668    0.7690732200000000    0.6254681647940075 C
   0.5601638500000000    0.1024065533333333    0.6254681647940075 C
   0.5601638500000000    0.4357398866666666    0.6254681647940075 C
   0.5601638500000000    0.7690732200000000    0.6254681647940075 C
   0.8934971833333332    0.1024065533333333    0.6254681647940075 C
   0.8934971833333329    0.4357398866666666    0.6254681647940075 C
   0.8934971833333333    0.7690732200000000    0.6254681647940075 C
   0.2391193033333334    0.1162314400000000    0.6254681647940075 C
   0.2391193033333335    0.4495647733333333    0.6254681647940075 C
   0.2391193033333334    0.7828981066666668    0.6254681647940075 C
   0.5724526366666667    0.1162314400000000    0.6254681647940075 C
   0.5724526366666666    0.4495647733333333    0.6254681647940075 C
   0.5724526366666667    0.7828981066666668    0.6254681647940075 C
   0.9057859699999998    0.1162314400000000    0.6254681647940075 C
   0.9057859699999999    0.4495647733333333    0.6254681647940075 C
   0.9057859699999998    0.7828981066666668    0.6254681647940075 C
   0.2514080900000000    0.1300563233333333    0.6254681647940075 C
   0.2514080900000000    0.4633896566666667    0.6254681647940075 C
   0.2514080900000000    0.7967229900000001    0.6254681647940075 C
   0.5847414233333333    0.1300563233333333    0.6254681647940075 C
   0.5847414233333333    0.4633896566666667    0.6254681647940075 C
   0.5847414233333333    0.7967229900000001    0.6254681647940075 C
   0.9180747566666666    0.1300563233333333    0.6254681647940075 C
   0.9180747566666667    0.4633896566666667    0.6254681647940075 C
   0.9180747566666667    0.7967229900000001    0.6254681647940075 C
   0.2636968766666667    0.1438812100000000    0.6254681647940075 C
   0.2636968766666667    0.4772145433333334    0.6254681647940075 C
   0.2636968766666667    0.8105478766666666    0.6254681647940075 C
   0.5970302100000000    0.1438812100000000    0.6254681647940075 C
   0.5970302100000000    0.4772145433333334    0.6254681647940075 C
   0.5970302100000001    0.8105478766666666    0.6254681647940075 C
   0.9303635433333333    0.1438812100000000    0.6254681647940075 C
   0.9303635433333334    0.4772145433333334    0.6254681647940075 C
   0.9303635433333334    0.8105478766666666    0.6254681647940075 C
   0.2759856633333334    0.1577060933333333    0.6254681647940075 C
   0.2759856633333334    0.4910394266666666    0.6254681647940075 C
   0.2759856633333335    0.8243727599999999    0.6254681647940075 C
   0.6093189966666667    0.1577060933333333    0.6254681647940075 C
   0.6093189966666666    0.4910394266666666    0.6254681647940075 C
   0.6093189966666669    0.8243727599999999    0.6254681647940075 C
   0.9426523299999999    0.1577060933333333    0.6254681647940075 C
   0.9426523300000000    0.4910394266666666    0.6254681647940075 C
   0.9426523300000001    0.8243727599999999    0.6254681647940075 C
   0.2882744500000001    0.1715309766666667    0.6254681647940075 C
   0.2882744499999999    0.5048643100000000    0.6254681647940075 C
   0.2882744499999999    0.8381976433333332    0.6254681647940075 C
   0.6216077833333333    0.1715309766666667    0.6254681647940075 C
   0.6216077833333333    0.5048643100000000    0.6254681647940075 C
   0.6216077833333333    0.8381976433333332    0.6254681647940075 C
   0.9549411166666667    0.1715309766666667    0.6254681647940075 C
   0.9549411166666663    0.5048643100000000    0.6254681647940075 C
   0.9549411166666664    0.8381976433333332    0.6254681647940075 C
   0.3005632366666667    0.1853558633333333    0.6254681647940075 C
   0.3005632366666667    0.5186891966666666    0.6254681647940075 C
   0.3005632366666667    0.8520225300000001    0.6254681647940075 C
   0.6338965699999999    0.1853558633333333    0.6254681647940075 C
   0.6338965700000000    0.5186891966666666    0.6254681647940075 C
   0.6338965699999999    0.8520225300000001    0.6254681647940075 C
   0.9672299033333331    0.1853558633333333    0.6254681647940075 C
   0.9672299033333334    0.5186891966666666    0.6254681647940075 C
   0.9672299033333331    0.8520225300000001    0.6254681647940075 C
   0.3128520233333333    0.1991807466666667    0.6254681647940075 C
   0.3128520233333333    0.5325140799999999    0.6254681647940075 C
   0.3128520233333335    0.8658474133333334    0.6254681647940075 C
   0.6461853566666667    0.1991807466666667    0.6254681647940075 C
   0.6461853566666668    0.5325140799999999    0.6254681647940075 C
   0.6461853566666667    0.8658474133333334    0.6254681647940075 C
   0.9795186900000000    0.1991807466666667    0.6254681647940075 C
   0.9795186899999997    0.5325140799999999    0.6254681647940075 C
   0.9795186899999997    0.8658474133333334    0.6254681647940075 C
   0.3251408099999999    0.2130056333333334    0.6254681647940075 C
   0.3251408099999999    0.5463389666666667    0.6254681647940075 C
   0.3251408100000002    0.8796723000000000    0.6254681647940075 C
   0.6584741433333331    0.2130056333333334    0.6254681647940075 C
   0.6584741433333333    0.5463389666666667    0.6254681647940075 C
   0.6584741433333335    0.8796723000000000    0.6254681647940075 C
   0.9918074766666666    0.2130056333333334    0.6254681647940075 C
   0.9918074766666662    0.5463389666666667    0.6254681647940075 C
   0.9918074766666666    0.8796723000000000    0.6254681647940075 C
   0.0040962633333333    0.2268305166666666    0.6254681647940075 C
   0.0040962633333333    0.5601638500000000    0.6254681647940075 C
   0.0040962633333334    0.8934971833333333    0.6254681647940075 C
   0.3374295966666666    0.2268305166666666    0.6254681647940075 C
   0.3374295966666666    0.5601638500000000    0.6254681647940075 C
   0.3374295966666669    0.8934971833333333    0.6254681647940075 C
   0.6707629300000000    0.2268305166666666    0.6254681647940075 C
   0.6707629299999998    0.5601638500000000    0.6254681647940075 C
   0.6707629299999999    0.8934971833333333    0.6254681647940075 C
   0.0163850500000000    0.2406554033333334    0.6254681647940075 C
   0.0163850500000000    0.5739887366666667    0.6254681647940075 C
   0.0163850500000001    0.9073220700000001    0.6254681647940075 C
   0.3497183833333333    0.2406554033333334    0.6254681647940075 C
   0.3497183833333333    0.5739887366666667    0.6254681647940075 C
   0.3497183833333334    0.9073220700000001    0.6254681647940075 C
   0.6830517166666668    0.2406554033333334    0.6254681647940075 C
   0.6830517166666666    0.5739887366666667    0.6254681647940075 C
   0.6830517166666664    0.9073220700000001    0.6254681647940075 C
   0.1792114700000000    0.0071684600000000    0.6254681647940075 C
   0.1792114700000000    0.3405017933333334    0.6254681647940075 C
   0.1792114700000000    0.6738351266666667    0.6254681647940075 C
   0.5125448033333333    0.0071684600000000    0.6254681647940075 C
   0.5125448033333333    0.3405017933333334    0.6254681647940075 C
   0.5125448033333335    0.6738351266666667    0.6254681647940075 C
   0.8458781366666666    0.0071684600000000    0.6254681647940075 C
   0.8458781366666666    0.3405017933333334    0.6254681647940075 C
   0.8458781366666664    0.6738351266666667    0.6254681647940075 C
   0.1915002566666666    0.0209933433333333    0.6254681647940075 C
   0.1915002566666667    0.3543266766666666    0.6254681647940075 C
   0.1915002566666667    0.6876600100000001    0.6254681647940075 C
   0.5248335900000000    0.0209933433333333    0.6254681647940075 C
   0.5248335899999998    0.3543266766666666    0.6254681647940075 C
   0.5248335900000000    0.6876600100000001    0.6254681647940075 C
   0.8581669233333332    0.0209933433333333    0.6254681647940075 C
   0.8581669233333333    0.3543266766666666    0.6254681647940075 C
   0.8581669233333331    0.6876600100000001    0.6254681647940075 C
   0.2037890433333333    0.0348182300000000    0.6254681647940075 C
   0.2037890433333334    0.3681515633333333    0.6254681647940075 C
   0.2037890433333333    0.7014848966666667    0.6254681647940075 C
   0.5371223766666666    0.0348182300000000    0.6254681647940075 C
   0.5371223766666666    0.3681515633333333    0.6254681647940075 C
   0.5371223766666668    0.7014848966666667    0.6254681647940075 C
   0.8704557099999999    0.0348182300000000    0.6254681647940075 C
   0.8704557100000000    0.3681515633333333    0.6254681647940075 C
   0.8704557099999998    0.7014848966666667    0.6254681647940075 C
   0.2160778300000000    0.0486431133333333    0.6254681647940075 C
   0.2160778300000001    0.3819764466666666    0.6254681647940075 C
   0.2160778300000001    0.7153097800000000    0.6254681647940075 C
   0.5494111633333333    0.0486431133333333    0.6254681647940075 C
   0.5494111633333333    0.3819764466666666    0.6254681647940075 C
   0.5494111633333332    0.7153097800000000    0.6254681647940075 C
   0.8827444966666665    0.0486431133333333    0.6254681647940075 C
   0.8827444966666667    0.3819764466666666    0.6254681647940075 C
   0.8827444966666664    0.7153097800000000    0.6254681647940075 C
   0.2283666166666666    0.0624679966666667    0.6254681647940075 C
   0.2283666166666667    0.3958013300000000    0.6254681647940075 C
   0.2283666166666667    0.7291346633333334    0.6254681647940075 C
   0.5616999500000001    0.0624679966666667    0.6254681647940075 C
   0.5616999499999999    0.3958013300000000    0.6254681647940075 C
   0.5616999500000002    0.7291346633333334    0.6254681647940075 C
   0.8950332833333334    0.0624679966666667    0.6254681647940075 C
   0.8950332833333333    0.3958013300000000    0.6254681647940075 C
   0.8950332833333334    0.7291346633333334    0.6254681647940075 C
   0.2406554033333334    0.0762928833333333    0.6254681647940075 C
   0.2406554033333334    0.4096262166666667    0.6254681647940075 C
   0.2406554033333335    0.7429595499999999    0.6254681647940075 C
   0.5739887366666666    0.0762928833333333    0.6254681647940075 C
   0.5739887366666666    0.4096262166666667    0.6254681647940075 C
   0.5739887366666669    0.7429595499999999    0.6254681647940075 C
   0.9073220700000000    0.0762928833333333    0.6254681647940075 C
   0.9073220700000000    0.4096262166666667    0.6254681647940075 C
   0.9073220699999999    0.7429595499999999    0.6254681647940075 C
   0.2529441900000000    0.0901177666666667    0.6254681647940075 C
   0.2529441900000000    0.4234511000000000    0.6254681647940075 C
   0.2529441900000002    0.7567844333333332    0.6254681647940075 C
   0.5862775233333335    0.0901177666666667    0.6254681647940075 C
   0.5862775233333334    0.4234511000000000    0.6254681647940075 C
   0.5862775233333334    0.7567844333333332    0.6254681647940075 C
   0.9196108566666666    0.0901177666666667    0.6254681647940075 C
   0.9196108566666666    0.4234511000000000    0.6254681647940075 C
   0.9196108566666666    0.7567844333333332    0.6254681647940075 C
   0.2652329733333334    0.1039426533333333    0.6254681647940075 C
   0.2652329733333334    0.4372759866666666    0.6254681647940075 C
   0.2652329733333333    0.7706093200000000    0.6254681647940075 C
   0.5985663066666664    0.1039426533333333    0.6254681647940075 C
   0.5985663066666665    0.4372759866666666    0.6254681647940075 C
   0.5985663066666669    0.7706093200000000    0.6254681647940075 C
   0.9318996399999999    0.1039426533333333    0.6254681647940075 C
   0.9318996400000001    0.4372759866666666    0.6254681647940075 C
   0.9318996399999998    0.7706093200000000    0.6254681647940075 C
   0.2775217600000000    0.1177675366666667    0.6254681647940075 C
   0.2775217600000000    0.4511008700000000    0.6254681647940075 C
   0.2775217600000001    0.7844342033333334    0.6254681647940075 C
   0.6108550933333334    0.1177675366666667    0.6254681647940075 C
   0.6108550933333333    0.4511008700000000    0.6254681647940075 C
   0.6108550933333334    0.7844342033333334    0.6254681647940075 C
   0.9441884266666668    0.1177675366666667    0.6254681647940075 C
   0.9441884266666666    0.4511008700000000    0.6254681647940075 C
   0.9441884266666667    0.7844342033333334    0.6254681647940075 C
   0.2898105466666668    0.1315924233333333    0.6254681647940075 C
   0.2898105466666668    0.4649257566666667    0.6254681647940075 C
   0.2898105466666667    0.7982590900000001    0.6254681647940075 C
   0.6231438800000000    0.1315924233333333    0.6254681647940075 C
   0.6231438800000000    0.4649257566666667    0.6254681647940075 C
   0.6231438800000001    0.7982590900000001    0.6254681647940075 C
   0.9564772133333331    0.1315924233333333    0.6254681647940075 C
   0.9564772133333332    0.4649257566666667    0.6254681647940075 C
   0.9564772133333334    0.7982590900000001    0.6254681647940075 C
   0.3020993333333334    0.1454173066666667    0.6254681647940075 C
   0.3020993333333333    0.4787506400000000    0.6254681647940075 C
   0.3020993333333334    0.8120839733333334    0.6254681647940075 C
   0.6354326666666668    0.1454173066666667    0.6254681647940075 C
   0.6354326666666666    0.4787506400000000    0.6254681647940075 C
   0.6354326666666668    0.8120839733333334    0.6254681647940075 C
   0.9687659999999999    0.1454173066666667    0.6254681647940075 C
   0.9687659999999999    0.4787506400000000    0.6254681647940075 C
   0.9687660000000000    0.8120839733333334    0.6254681647940075 C
   0.3143881200000000    0.1592421900000000    0.6254681647940075 C
   0.3143881199999999    0.4925755233333334    0.6254681647940075 C
   0.3143881200000001    0.8259088566666667    0.6254681647940075 C
   0.6477214533333333    0.1592421900000000    0.6254681647940075 C
   0.6477214533333333    0.4925755233333334    0.6254681647940075 C
   0.6477214533333334    0.8259088566666667    0.6254681647940075 C
   0.9810547866666666    0.1592421900000000    0.6254681647940075 C
   0.9810547866666669    0.4925755233333334    0.6254681647940075 C
   0.9810547866666667    0.8259088566666667    0.6254681647940075 C
   0.3266769066666667    0.1730670766666666    0.6254681647940075 C
   0.3266769066666667    0.5064004099999999    0.6254681647940075 C
   0.3266769066666667    0.8397337433333334    0.6254681647940075 C
   0.6600102400000000    0.1730670766666666    0.6254681647940075 C
   0.6600102400000000    0.5064004099999999    0.6254681647940075 C
   0.6600102400000003    0.8397337433333334    0.6254681647940075 C
   0.9933435733333332    0.1730670766666666    0.6254681647940075 C
   0.9933435733333336    0.5064004099999999    0.6254681647940075 C
   0.9933435733333336    0.8397337433333334    0.6254681647940075 C
   0.0056323600000000    0.1868919600000000    0.6254681647940075 C
   0.0056323600000001    0.5202252933333333    0.6254681647940075 C
   0.0056323600000001    0.8535586266666667    0.6254681647940075 C
   0.3389656933333332    0.1868919600000000    0.6254681647940075 C
   0.3389656933333333    0.5202252933333333    0.6254681647940075 C
   0.3389656933333334    0.8535586266666667    0.6254681647940075 C
   0.6722990266666666    0.1868919600000000    0.6254681647940075 C
   0.6722990266666666    0.5202252933333333    0.6254681647940075 C
   0.6722990266666669    0.8535586266666667    0.6254681647940075 C
   0.0179211466666667    0.2007168466666667    0.6254681647940075 C
   0.0179211466666667    0.5340501800000000    0.6254681647940075 C
   0.0179211466666667    0.8673835133333335    0.6254681647940075 C
   0.3512544800000000    0.2007168466666667    0.6254681647940075 C
   0.3512544800000001    0.5340501800000000    0.6254681647940075 C
   0.3512544800000001    0.8673835133333335    0.6254681647940075 C
   0.6845878133333334    0.2007168466666667    0.6254681647940075 C
   0.6845878133333333    0.5340501800000000    0.6254681647940075 C
   0.6845878133333334    0.8673835133333335    0.6254681647940075 C
   0.2176139266666667    0.0087045566666667    0.6254681647940075 C
   0.2176139266666667    0.3420378900000001    0.6254681647940075 C
   0.2176139266666668    0.6753712233333333    0.6254681647940075 C
   0.5509472600000002    0.0087045566666667    0.6254681647940075 C
   0.5509472599999999    0.3420378900000001    0.6254681647940075 C
   0.5509472600000002    0.6753712233333333    0.6254681647940075 C
   0.8842805933333334    0.0087045566666667    0.6254681647940075 C
   0.8842805933333332    0.3420378900000001    0.6254681647940075 C
   0.8842805933333331    0.6753712233333333    0.6254681647940075 C
   0.2299027133333333    0.0225294433333333    0.6254681647940075 C
   0.2299027133333333    0.3558627766666667    0.6254681647940075 C
   0.2299027133333334    0.6891961100000000    0.6254681647940075 C
   0.5632360466666666    0.0225294433333333    0.6254681647940075 C
   0.5632360466666667    0.3558627766666667    0.6254681647940075 C
   0.5632360466666668    0.6891961100000000    0.6254681647940075 C
   0.8965693799999999    0.0225294433333333    0.6254681647940075 C
   0.8965693799999999    0.3558627766666667    0.6254681647940075 C
   0.8965693799999997    0.6891961100000000    0.6254681647940075 C
   0.2421915000000000    0.0363543266666667    0.6254681647940075 C
   0.2421915000000000    0.3696876600000000    0.6254681647940075 C
   0.2421915000000001    0.7030209933333333    0.6254681647940075 C
   0.5755248333333333    0.0363543266666667    0.6254681647940075 C
   0.5755248333333333    0.3696876600000000    0.6254681647940075 C
   0.5755248333333335    0.7030209933333333    0.6254681647940075 C
   0.9088581666666667    0.0363543266666667    0.6254681647940075 C
   0.9088581666666665    0.3696876600000000    0.6254681647940075 C
   0.9088581666666669    0.7030209933333333    0.6254681647940075 C
   0.2544802866666667    0.0501792100000000    0.6254681647940075 C
   0.2544802866666667    0.3835125433333334    0.6254681647940075 C
   0.2544802866666667    0.7168458766666667    0.6254681647940075 C
   0.5878136200000000    0.0501792100000000    0.6254681647940075 C
   0.5878136200000000    0.3835125433333334    0.6254681647940075 C
   0.5878136199999999    0.7168458766666667    0.6254681647940075 C
   0.9211469533333332    0.0501792100000000    0.6254681647940075 C
   0.9211469533333333    0.3835125433333334    0.6254681647940075 C
   0.9211469533333332    0.7168458766666667    0.6254681647940075 C
   0.2667690733333333    0.0640040966666667    0.6254681647940075 C
   0.2667690733333333    0.3973374300000000    0.6254681647940075 C
   0.2667690733333332    0.7306707633333334    0.6254681647940075 C
   0.6001024066666667    0.0640040966666667    0.6254681647940075 C
   0.6001024066666667    0.3973374300000000    0.6254681647940075 C
   0.6001024066666665    0.7306707633333334    0.6254681647940075 C
   0.9334357399999998    0.0640040966666667    0.6254681647940075 C
   0.9334357400000000    0.3973374300000000    0.6254681647940075 C
   0.9334357399999997    0.7306707633333334    0.6254681647940075 C
   0.2790578599999999    0.0778289800000000    0.6254681647940075 C
   0.2790578600000001    0.4111623133333333    0.6254681647940075 C
   0.2790578599999999    0.7444956466666667    0.6254681647940075 C
   0.6123911933333333    0.0778289800000000    0.6254681647940075 C
   0.6123911933333333    0.4111623133333333    0.6254681647940075 C
   0.6123911933333334    0.7444956466666667    0.6254681647940075 C
   0.9457245266666666    0.0778289800000000    0.6254681647940075 C
   0.9457245266666666    0.4111623133333333    0.6254681647940075 C
   0.9457245266666665    0.7444956466666667    0.6254681647940075 C
   0.2913466466666666    0.0916538666666667    0.6254681647940075 C
   0.2913466466666666    0.4249872000000001    0.6254681647940075 C
   0.2913466466666667    0.7583205333333335    0.6254681647940075 C
   0.6246799799999999    0.0916538666666667    0.6254681647940075 C
   0.6246799799999998    0.4249872000000001    0.6254681647940075 C
   0.6246799799999998    0.7583205333333335    0.6254681647940075 C
   0.9580133133333332    0.0916538666666667    0.6254681647940075 C
   0.9580133133333332    0.4249872000000001    0.6254681647940075 C
   0.9580133133333331    0.7583205333333335    0.6254681647940075 C
   0.3036354333333334    0.1054787500000000    0.6254681647940075 C
   0.3036354333333334    0.4388120833333334    0.6254681647940075 C
   0.3036354333333334    0.7721454166666668    0.6254681647940075 C
   0.6369687666666667    0.1054787500000000    0.6254681647940075 C
   0.6369687666666666    0.4388120833333334    0.6254681647940075 C
   0.6369687666666667    0.7721454166666668    0.6254681647940075 C
   0.9703020999999998    0.1054787500000000    0.6254681647940075 C
   0.9703020999999999    0.4388120833333334    0.6254681647940075 C
   0.9703020999999999    0.7721454166666668    0.6254681647940075 C
   0.3159242200000001    0.1193036366666667    0.6254681647940075 C
   0.3159242200000002    0.4526369700000000    0.6254681647940075 C
   0.3159242200000001    0.7859703033333334    0.6254681647940075 C
   0.6492575533333333    0.1193036366666667    0.6254681647940075 C
   0.6492575533333333    0.4526369700000000    0.6254681647940075 C
   0.6492575533333333    0.7859703033333334    0.6254681647940075 C
   0.9825908866666667    0.1193036366666667    0.6254681647940075 C
   0.9825908866666666    0.4526369700000000    0.6254681647940075 C
   0.9825908866666666    0.7859703033333334    0.6254681647940075 C
   0.3282130066666667    0.1331285200000000    0.6254681647940075 C
   0.3282130066666666    0.4664618533333333    0.6254681647940075 C
   0.3282130066666668    0.7997951866666666    0.6254681647940075 C
   0.6615463399999999    0.1331285200000000    0.6254681647940075 C
   0.6615463399999998    0.4664618533333333    0.6254681647940075 C
   0.6615463400000001    0.7997951866666666    0.6254681647940075 C
   0.9948796733333329    0.1331285200000000    0.6254681647940075 C
   0.9948796733333330    0.4664618533333333    0.6254681647940075 C
   0.9948796733333332    0.7997951866666666    0.6254681647940075 C
   0.0071684600000000    0.1469534066666667    0.6254681647940075 C
   0.0071684600000000    0.4802867400000000    0.6254681647940075 C
   0.0071684600000001    0.8136200733333333    0.6254681647940075 C
   0.3405017933333334    0.1469534066666667    0.6254681647940075 C
   0.3405017933333332    0.4802867400000000    0.6254681647940075 C
   0.3405017933333332    0.8136200733333333    0.6254681647940075 C
   0.6738351266666666    0.1469534066666667    0.6254681647940075 C
   0.6738351266666666    0.4802867400000000    0.6254681647940075 C
   0.6738351266666666    0.8136200733333333    0.6254681647940075 C
   0.0194572466666667    0.1607782900000000    0.6254681647940075 C
   0.0194572466666668    0.4941116233333334    0.6254681647940075 C
   0.0194572466666667    0.8274449566666666    0.6254681647940075 C
   0.3527905800000000    0.1607782900000000    0.6254681647940075 C
   0.3527905800000001    0.4941116233333334    0.6254681647940075 C
   0.3527905800000002    0.8274449566666666    0.6254681647940075 C
   0.6861239133333332    0.1607782900000000    0.6254681647940075 C
   0.6861239133333333    0.4941116233333334    0.6254681647940075 C
   0.6861239133333334    0.8274449566666666    0.6254681647940075 C
   0.2560163866666667    0.0102406566666667    0.6254681647940075 C
   0.2560163866666667    0.3435739900000000    0.6254681647940075 C
   0.2560163866666666    0.6769073233333334    0.6254681647940075 C
   0.5893497200000000    0.0102406566666667    0.6254681647940075 C
   0.5893497200000001    0.3435739900000000    0.6254681647940075 C
   0.5893497200000001    0.6769073233333334    0.6254681647940075 C
   0.9226830533333333    0.0102406566666667    0.6254681647940075 C
   0.9226830533333332    0.3435739900000000    0.6254681647940075 C
   0.9226830533333332    0.6769073233333334    0.6254681647940075 C
   0.2683051699999999    0.0240655400000000    0.6254681647940075 C
   0.2683051700000001    0.3573988733333333    0.6254681647940075 C
   0.2683051700000001    0.6907322066666668    0.6254681647940075 C
   0.6016385033333332    0.0240655400000000    0.6254681647940075 C
   0.6016385033333334    0.3573988733333333    0.6254681647940075 C
   0.6016385033333334    0.6907322066666668    0.6254681647940075 C
   0.9349718366666666    0.0240655400000000    0.6254681647940075 C
   0.9349718366666665    0.3573988733333333    0.6254681647940075 C
   0.9349718366666667    0.6907322066666668    0.6254681647940075 C
   0.2805939566666667    0.0378904233333333    0.6254681647940075 C
   0.2805939566666668    0.3712237566666666    0.6254681647940075 C
   0.2805939566666667    0.7045570900000001    0.6254681647940075 C
   0.6139272900000000    0.0378904233333333    0.6254681647940075 C
   0.6139272899999999    0.3712237566666666    0.6254681647940075 C
   0.6139272900000001    0.7045570900000001    0.6254681647940075 C
   0.9472606233333335    0.0378904233333333    0.6254681647940075 C
   0.9472606233333334    0.3712237566666666    0.6254681647940075 C
   0.9472606233333333    0.7045570900000001    0.6254681647940075 C
   0.2928827433333334    0.0517153100000000    0.6254681647940075 C
   0.2928827433333333    0.3850486433333333    0.6254681647940075 C
   0.2928827433333335    0.7183819766666667    0.6254681647940075 C
   0.6262160766666665    0.0517153100000000    0.6254681647940075 C
   0.6262160766666667    0.3850486433333333    0.6254681647940075 C
   0.6262160766666667    0.7183819766666667    0.6254681647940075 C
   0.9595494099999997    0.0517153100000000    0.6254681647940075 C
   0.9595494100000000    0.3850486433333333    0.6254681647940075 C
   0.9595494099999996    0.7183819766666667    0.6254681647940075 C
   0.3051715300000001    0.0655401933333333    0.6254681647940075 C
   0.3051715300000000    0.3988735266666666    0.6254681647940075 C
   0.3051715300000001    0.7322068600000000    0.6254681647940075 C
   0.6385048633333335    0.0655401933333333    0.6254681647940075 C
   0.6385048633333333    0.3988735266666666    0.6254681647940075 C
   0.6385048633333333    0.7322068600000000    0.6254681647940075 C
   0.9718381966666665    0.0655401933333333    0.6254681647940075 C
   0.9718381966666666    0.3988735266666666    0.6254681647940075 C
   0.9718381966666664    0.7322068600000000    0.6254681647940075 C
   0.3174603166666667    0.0793650800000000    0.6254681647940075 C
   0.3174603166666667    0.4126984133333333    0.6254681647940075 C
   0.3174603166666667    0.7460317466666666    0.6254681647940075 C
   0.6507936500000000    0.0793650800000000    0.6254681647940075 C
   0.6507936500000002    0.4126984133333333    0.6254681647940075 C
   0.6507936500000000    0.7460317466666666    0.6254681647940075 C
   0.9841269833333333    0.0793650800000000    0.6254681647940075 C
   0.9841269833333331    0.4126984133333333    0.6254681647940075 C
   0.9841269833333330    0.7460317466666666    0.6254681647940075 C
   0.3297491033333334    0.0931899633333333    0.6254681647940075 C
   0.3297491033333335    0.4265232966666667    0.6254681647940075 C
   0.3297491033333335    0.7598566299999999    0.6254681647940075 C
   0.6630824366666667    0.0931899633333333    0.6254681647940075 C
   0.6630824366666666    0.4265232966666667    0.6254681647940075 C
   0.6630824366666668    0.7598566299999999    0.6254681647940075 C
   0.9964157700000000    0.0931899633333333    0.6254681647940075 C
   0.9964157699999998    0.4265232966666667    0.6254681647940075 C
   0.9964157700000000    0.7598566299999999    0.6254681647940075 C
   0.0087045566666667    0.1070148500000000    0.6254681647940075 C
   0.0087045566666667    0.4403481833333333    0.6254681647940075 C
   0.0087045566666667    0.7736815166666667    0.6254681647940075 C
   0.3420378900000000    0.1070148500000000    0.6254681647940075 C
   0.3420378899999999    0.4403481833333333    0.6254681647940075 C
   0.3420378900000000    0.7736815166666667    0.6254681647940075 C
   0.6753712233333332    0.1070148500000000    0.6254681647940075 C
   0.6753712233333332    0.4403481833333333    0.6254681647940075 C
   0.6753712233333331    0.7736815166666667    0.6254681647940075 C
   0.0209933433333334    0.1208397333333333    0.6254681647940075 C
   0.0209933433333334    0.4541730666666666    0.6254681647940075 C
   0.0209933433333334    0.7875064000000001    0.6254681647940075 C
   0.3543266766666666    0.1208397333333333    0.6254681647940075 C
   0.3543266766666666    0.4541730666666666    0.6254681647940075 C
   0.3543266766666667    0.7875064000000001    0.6254681647940075 C
   0.6876600099999999    0.1208397333333333    0.6254681647940075 C
   0.6876600099999999    0.4541730666666666    0.6254681647940075 C
   0.6876600099999998    0.7875064000000001    0.6254681647940075 C
   0.2944188433333333    0.0117767533333333    0.6254681647940075 C
   0.2944188433333334    0.3451100866666668    0.6254681647940075 C
   0.2944188433333333    0.6784434199999999    0.6254681647940075 C
   0.6277521766666666    0.0117767533333333    0.6254681647940075 C
   0.6277521766666667    0.3451100866666668    0.6254681647940075 C
   0.6277521766666667    0.6784434199999999    0.6254681647940075 C
   0.9610855100000000    0.0117767533333333    0.6254681647940075 C
   0.9610855100000000    0.3451100866666668    0.6254681647940075 C
   0.9610855099999998    0.6784434199999999    0.6254681647940075 C
   0.3067076300000001    0.0256016400000000    0.6254681647940075 C
   0.3067076300000000    0.3589349733333334    0.6254681647940075 C
   0.3067076300000000    0.6922683066666667    0.6254681647940075 C
   0.6400409633333333    0.0256016400000000    0.6254681647940075 C
   0.6400409633333334    0.3589349733333334    0.6254681647940075 C
   0.6400409633333335    0.6922683066666667    0.6254681647940075 C
   0.9733742966666665    0.0256016400000000    0.6254681647940075 C
   0.9733742966666666    0.3589349733333334    0.6254681647940075 C
   0.9733742966666667    0.6922683066666667    0.6254681647940075 C
   0.3189964166666667    0.0394265233333333    0.6254681647940075 C
   0.3189964166666667    0.3727598566666667    0.6254681647940075 C
   0.3189964166666669    0.7060931900000000    0.6254681647940075 C
   0.6523297499999999    0.0394265233333333    0.6254681647940075 C
   0.6523297500000000    0.3727598566666667    0.6254681647940075 C
   0.6523297500000004    0.7060931900000000    0.6254681647940075 C
   0.9856630833333333    0.0394265233333333    0.6254681647940075 C
   0.9856630833333334    0.3727598566666667    0.6254681647940075 C
   0.9856630833333334    0.7060931900000000    0.6254681647940075 C
   0.3312852033333333    0.0532514066666667    0.6254681647940075 C
   0.3312852033333334    0.3865847400000000    0.6254681647940075 C
   0.3312852033333334    0.7199180733333334    0.6254681647940075 C
   0.6646185366666667    0.0532514066666667    0.6254681647940075 C
   0.6646185366666668    0.3865847400000000    0.6254681647940075 C
   0.6646185366666669    0.7199180733333334    0.6254681647940075 C
   0.9979518699999997    0.0532514066666667    0.6254681647940075 C
   0.9979518699999999    0.3865847400000000    0.6254681647940075 C
   0.9979518700000000    0.7199180733333334    0.6254681647940075 C
   0.0102406566666667    0.0670762933333333    0.6254681647940075 C
   0.0102406566666666    0.4004096266666667    0.6254681647940075 C
   0.0102406566666667    0.7337429599999999    0.6254681647940075 C
   0.3435739900000000    0.0670762933333333    0.6254681647940075 C
   0.3435739900000001    0.4004096266666667    0.6254681647940075 C
   0.3435739900000003    0.7337429599999999    0.6254681647940075 C
   0.6769073233333333    0.0670762933333333    0.6254681647940075 C
   0.6769073233333334    0.4004096266666667    0.6254681647940075 C
   0.6769073233333333    0.7337429599999999    0.6254681647940075 C
   0.0225294433333333    0.0809011766666667    0.6254681647940075 C
   0.0225294433333334    0.4142345100000000    0.6254681647940075 C
   0.0225294433333334    0.7475678433333334    0.6254681647940075 C
   0.3558627766666665    0.0809011766666667    0.6254681647940075 C
   0.3558627766666665    0.4142345100000000    0.6254681647940075 C
   0.3558627766666667    0.7475678433333334    0.6254681647940075 C
   0.6891961099999998    0.0809011766666667    0.6254681647940075 C
   0.6891961099999998    0.4142345100000000    0.6254681647940075 C
   0.6891961100000000    0.7475678433333334    0.6254681647940075 C
   0.3328213000000000    0.0133128533333333    0.6254681647940075 C
   0.3328213000000000    0.3466461866666667    0.6254681647940075 C
   0.3328213000000001    0.6799795200000001    0.6254681647940075 C
   0.6661546333333334    0.0133128533333333    0.6254681647940075 C
   0.6661546333333335    0.3466461866666667    0.6254681647940075 C
   0.6661546333333334    0.6799795200000001    0.6254681647940075 C
   0.9994879666666665    0.0133128533333333    0.6254681647940075 C
   0.9994879666666666    0.3466461866666667    0.6254681647940075 C
   0.9994879666666666    0.6799795200000001    0.6254681647940075 C
   0.0117767533333333    0.0271377366666667    0.6254681647940075 C
   0.0117767533333333    0.3604710700000000    0.6254681647940075 C
   0.0117767533333334    0.6938044033333334    0.6254681647940075 C
   0.3451100866666667    0.0271377366666667    0.6254681647940075 C
   0.3451100866666665    0.3604710700000000    0.6254681647940075 C
   0.3451100866666666    0.6938044033333334    0.6254681647940075 C
   0.6784434199999997    0.0271377366666667    0.6254681647940075 C
   0.6784434200000000    0.3604710700000000    0.6254681647940075 C
   0.6784434199999998    0.6938044033333334    0.6254681647940075 C
   0.0240655400000000    0.0409626200000000    0.6254681647940075 C
   0.0240655400000000    0.3742959533333333    0.6254681647940075 C
   0.0240655400000000    0.7076292866666668    0.6254681647940075 C
   0.3573988733333333    0.0409626200000000    0.6254681647940075 C
   0.3573988733333334    0.3742959533333333    0.6254681647940075 C
   0.3573988733333335    0.7076292866666668    0.6254681647940075 C
   0.6907322066666666    0.0409626200000000    0.6254681647940075 C
   0.6907322066666667    0.3742959533333333    0.6254681647940075 C
   0.6907322066666666    0.7076292866666668    0.6254681647940075 C
